LAMMPS (23 Jun 2022)

units real
boundary p p p
atom_style full
region mybox block -500.000000 500.000000 -500.000000 500.000000 -500.000000 500.000000
create_box 3 mybox bond/types 2 angle/types 0 dihedral/types 0 extra/special/per/atom 20 extra/bond/per/atom 20 extra/angle/per/atom 20
Created orthogonal box = (-500 -500 -500) to (500 500 500)
  1 by 1 by 1 MPI processor grid
#variable string MAA type 1
#variable Na type 2
molecule pol PDMAEMA_with_sidechains.mol
Read molecule template pol:
  1 molecules
  0 fragments
  220 atoms with max type 3
  103 bonds with max type 2
  0 angles with max type 0
  0 dihedrals with max type 0
  0 impropers with max type 0
mass 1 157.21
mass 2 170.33
mass 3 35.453
dielectric 81.2
bond_style harmonic
bond_coeff 1 0.57 5
bond_coeff 2 3.0 5.3
pair_style lj/cut/coul/long 4.568 500.0
pair_coeff 1 1 0.7 4.0 4.49
pair_coeff 2 2 0.8 4.7 5.3
pair_coeff 3 3 0.1 4.3 4.8
kspace_style pppm 1e-6
create_atoms 0 single 0 0 0 mol pol 123
Created 220 atoms
  using lattice units in orthogonal box = (-500 -500 -500) to (500 500 500)
  create_atoms CPU = 0.002 seconds

velocity all create 300.0 4928459
pair_modify shift yes mix arithmetic
fix nvt all langevin 300 300 100.0 6138895 gjf vfull
fix nve all nve
dump xtc all xtc 1000 PDMAEMA_with_sidechains.xtc
thermo		10000
timestep 2
run		1000000
PPPM initialization ...
  using 12-bit tables for long-range coulomb (src/kspace.cpp:342)
  G vector (1/distance) = 0.0045578333
  grid = 6 6 6
  stencil order = 5
  estimated absolute RMS force accuracy = 2.1769826e-06
  estimated relative force accuracy = 6.5559183e-09
  using double precision FFTW3
  3d grid and FFT values/proc = 1331 216
Generated 3 of 3 mixed pair_coeff terms from arithmetic mixing rule
Neighbor list info ...
  update every 1 steps, delay 10 steps, check yes
  max neighbors/atom: 2000, page size: 100000
  master list distance cutoff = 502
  ghost atom cutoff = 502
  binsize = 251, bins = 4 4 4
  1 neighbor lists, perpetual/occasional/extra = 1 0 0
  (1) pair lj/cut/coul/long, perpetual
      attributes: half, newton on
      pair build: half/bin/newton
      stencil: half/bin/3d
      bin: standard
Per MPI rank memory allocation (min/avg/max) = 16.44 | 16.44 | 16.44 Mbytes
   Step          Temp          E_pair         E_mol          TotEng         Press     
         0   301.84505      175.95665      207.68474      580.68506      0.15787685   
     10000   327.2896      -105.25729      24.303537      132.70004      0.0072587359 
     20000   323.10501     -98.851192      29.815839      141.88676      0.006004579  
     30000   262.80958     -91.941138      35.32592       114.94619      0.0016586151 
     40000   295.40634     -96.458527      31.966978      128.34894      0.0031770088 
     50000   298.94938     -88.36297       31.14464       137.93505      0.003059369  
     60000   291.76305     -89.030258      35.539493      136.97139      0.0027156689 
     70000   305.15177     -82.077839      29.975179      147.09962      0.0040629657 
     80000   292.18643     -80.671357      46.335703      156.40289      0.00077182571
     90000   289.12477     -80.4746        27.862378      136.12767      0.0018884466 
    100000   292.87704     -79.804048      36.505796      147.89112      0.0034340544 
    110000   316.19162     -80.193967      36.806567      163.02167      0.0034959864 
    120000   301.14606     -80.350708      29.486893      145.72355      0.0039202558 
    130000   296.25452     -78.866209      34.521545      149.04952      0.004904974  
    140000   284.22291     -74.740827      35.261247      146.0604       0.0019722478 
    150000   274.38468     -73.543699      28.500778      134.07469      0.0049420631 
    160000   303.89409     -71.186332      34.834782      162.02972      0.0028424066 
    170000   281.33441     -75.568049      31.539403      139.62573      0.0044809804 
    180000   296.72534     -77.228909      34.685624      151.15825      0.0037241409 
    190000   282.83214     -71.570112      35.070593      148.13257      0.0036120664 
    200000   310.92638     -73.873991      37.390108      166.48805      0.0035748937 
    210000   308.9313      -75.760218      26.503728      152.41306      0.0026945348 
    220000   305.9363      -69.025465      32.47059       163.15955      0.0039645179 
    230000   265.53427     -76.112299      28.267643      125.49542      0.0028396367 
    240000   282.02256     -77.282907      42.849839      149.67053      0.002491182  
    250000   303.57775     -74.789602      32.518856      155.90402      0.0040274909 
    260000   290.9324      -74.750521      31.776381      146.94577      0.0048446377 
    270000   328.53455     -70.107651      25.898619      170.25747      0.0064293752 
    280000   298.17341     -66.674319      35.304022      163.27653      0.0067832625 
    290000   301.49762     -68.757605      30.446194      158.50545      0.0049849471 
    300000   305.51211     -76.464702      31.18793       154.16074      0.0006644886 
    310000   318.74065     -69.936707      33.028641      171.165        0.0057202987 
    320000   312.85279     -69.93002       32.21355       166.51302      0.0074634605 
    330000   317.38729     -76.490108      31.802258      162.50175      0.0044445205 
    340000   306.41357     -75.239259      39.380651      164.16737      0.0044126542 
    350000   303.14154     -69.471033      28.497311      156.91629      0.0068913787 
    360000   301.21497     -67.647023      35.155311      164.14064      0.0024125278 
    370000   283.70697     -67.740949      35.646846      153.10907      0.0032672393 
    380000   301.02027     -64.321559      29.371033      161.55473      0.0036067813 
    390000   315.27489     -67.713845      33.690523      171.78731      0.0054229333 
    400000   314.32523     -73.161069      28.599559      160.62919      0.0044046049 
    410000   307.91038     -71.612294      34.067577      163.45838      0.002144538  
    420000   285.91286     -59.910223      29.087721      155.82067      0.0045238014 
    430000   277.68549     -61.167127      35.699914      155.80515      0.0023519298 
    440000   291.35687     -65.922691      29.422149      153.69647      0.0007520614 
    450000   318.75927     -68.047537      28.819255      168.85694      0.0076230958 
    460000   318.35323     -63.54089       28.18735       172.46662      0.0042739277 
    470000   302.42291     -64.80212       32.430834      165.04961      0.0048748927 
    480000   289.99546     -66.638789      39.204651      161.87415      0.0046559428 
    490000   300.97546     -74.790444      34.329764      156.01531      0.0014746173 
    500000   291.60608     -71.030255      23.703731      143.03316      0.0040497964 
    510000   296.87475     -67.266984      28.238965      154.77105      0.0061956562 
    520000   303.96196     -62.947635      24.41654       159.89449      0.0030067085 
    530000   292.79546     -68.137052      33.423369      156.42243      0.0013573885 
    540000   341.31601     -70.025783      34.338064      187.12248      0.0055338986 
    550000   323.81897     -63.721892      29.555992      177.22228      0.0030053005 
    560000   288.79387     -61.165488      32.57839       159.93679      0.0027706455 
    570000   282.6585      -60.038807      28.074109      152.55404      0.0047915598 
    580000   309.08585     -63.502315      37.828881      176.09701      0.0018896995 
    590000   319.51996     -59.965813      29.308749      177.92474      0.003746121  
    600000   300.47761     -58.322531      31.587838      169.41631      0.0021003021 
    610000   304.59188     -53.471829      30.631657      175.99661      0.0055451504 
    620000   290.24332     -65.863119      26.165162      149.77213      0.0011042263 
    630000   307.03289     -56.857518      28.151361      171.72412      0.0041870154 
    640000   287.74501     -60.572969      23.960238      151.22646      0.0029391912 
    650000   315.759       -52.39058       33.684998      187.42107      0.005200505  
    660000   296.29805     -50.92978       27.485774      169.97859      0.0032014394 
    670000   317.23279     -54.019954      37.936941      191.00573      0.00010601598
    680000   292.85538     -53.316568      23.20211       161.06077      0.0050298638 
    690000   317.97529     -51.058648      33.649398      190.1642       0.0051250448 
    700000   328.67515     -51.083861      40.32579       203.80021      0.0030935011 
    710000   296.3321      -42.103176      27.814769      179.15642      0.0076406651 
    720000   282.20208     -40.285643      37.766237      181.70138      8.5722973e-05
    730000   327.92912     -41.325751      36.463757      209.20928      0.0053917709 
    740000   314.03196     -50.716101      26.732646      181.01579      0.0042789246 
    750000   282.55179     -50.2534        32.827915      167.02359      0.0025357008 
    760000   308.62301     -48.283345      44.209872      197.39483      0.0052365242 
    770000   296.64234     -46.408135      33.551316      180.79053      0.0034774757 
    780000   311.63855     -42.713303      27.866566      188.5901       0.0040379112 
    790000   283.58634     -42.967472      26.526171      168.68313      0.0047953236 
    800000   332.08        -49.164728      26.646067      194.2623       0.0085144431 
    810000   299.37159     -53.442394      36.2204        178.207        0.0016096228 
    820000   285.78737     -48.458918      39.643789      177.74612      0.0030354606 
    830000   300.58136     -44.023529      32.412082      184.60728      0.0028842438 
    840000   301.71047     -44.041382      31.839267      184.75369      0.0048355279 
    850000   296.933       -47.029346      36.580695      183.38844      0.0016673062 
    860000   306.25217     -47.912363      28.671247      180.6795       0.0040952877 
    870000   288.38533     -44.201538      30.68509       174.74074      0.0042624094 
    880000   298.43355     -49.879271      24.683754      169.62113      0.0049706463 
    890000   327.12003     -45.531964      30.971386      198.98253      0.0046072185 
    900000   313.38887     -47.101407      34.923883      192.40192      0.0023391875 
    910000   306.03883     -43.453179      35.783554      192.11173      0.0043351285 
    920000   292.19899     -47.438147      20.547656      163.85625      0.0061657527 
    930000   302.02651     -42.330869      24.521108      179.35236      0.0037239315 
    940000   293.86731     -37.710812      27.611719      181.73673      0.0063868406 
    950000   296.53238     -39.396028      28.01953       182.19907      0.0045635554 
    960000   296.62451     -45.255688      30.098604      178.47863      0.001608932  
    970000   315.75158     -39.003747      34.836972      201.95503      0.0017571356 
    980000   272.91608     -39.178602      23.651511      162.63182      0.0042538542 
    990000   320.11639     -37.309509      25.375044      197.03668      0.0045956192 
   1000000   325.91863     -36.875608      41.926412      217.80964      0.0053194016 
Loop time of 423.142 on 1 procs for 1000000 steps with 220 atoms

Performance: 408.373 ns/day, 0.059 hours/ns, 2363.272 timesteps/s
98.4% CPU use with 1 MPI tasks x no OpenMP threads

MPI task timing breakdown:
Section |  min time  |  avg time  |  max time  |%varavg| %total
---------------------------------------------------------------
Pair    | 297.75     | 297.75     | 297.75     |   0.0 | 70.37
Bond    | 1.2004     | 1.2004     | 1.2004     |   0.0 |  0.28
Kspace  | 88.393     | 88.393     | 88.393     |   0.0 | 20.89
Neigh   | 2.8514     | 2.8514     | 2.8514     |   0.0 |  0.67
Comm    | 7.5871     | 7.5871     | 7.5871     |   0.0 |  1.79
Output  | 0.045733   | 0.045733   | 0.045733   |   0.0 |  0.01
Modify  | 23.587     | 23.587     | 23.587     |   0.0 |  5.57
Other   |            | 1.728      |            |       |  0.41

Nlocal:            220 ave         220 max         220 min
Histogram: 1 0 0 0 0 0 0 0 0 0
Nghost:           1652 ave        1652 max        1652 min
Histogram: 1 0 0 0 0 0 0 0 0 0
Neighs:          24087 ave       24087 max       24087 min
Histogram: 1 0 0 0 0 0 0 0 0 0

Total # of neighbors = 24087
Ave neighs/atom = 109.48636
Ave special neighs/atom = 1.9272727
Neighbor list builds = 14718
Dangerous builds = 0
write_data PDMAEMA_with_sidechains.data
System init for write_data ...
PPPM initialization ...
  using 12-bit tables for long-range coulomb (src/kspace.cpp:342)
  G vector (1/distance) = 0.0045578333
  grid = 6 6 6
  stencil order = 5
  estimated absolute RMS force accuracy = 2.1769826e-06
  estimated relative force accuracy = 6.5559183e-09
  using double precision FFTW3
  3d grid and FFT values/proc = 1331 216
Generated 3 of 3 mixed pair_coeff terms from arithmetic mixing rule
Total wall time: 0:07:03
