LAMMPS (23 Jun 2022)

units real
boundary p p p
atom_style full
region mybox block -500.000000 500.000000 -500.000000 500.000000 -500.000000 500.000000
create_box 3 mybox bond/types 2 angle/types 2 dihedral/types 0 extra/special/per/atom 20 extra/bond/per/atom 20 extra/angle/per/atom 20
Created orthogonal box = (-500 -500 -500) to (500 500 500)
  1 by 1 by 1 MPI processor grid
#variable string MAA type 1
#variable Na type 2
molecule pol PMAA_PEG.mol
Read molecule template pol:
  1 molecules
  0 fragments
  245 atoms with max type 3
  144 bonds with max type 1
  145 angles with max type 2
  0 dihedrals with max type 0
  0 impropers with max type 0
mass 1 86.09
mass 2 44
mass 3 11.0000
dielectric 81.2
bond_style harmonic
bond_coeff 1 0.690 3.492
bond_coeff 2 0.46 5.414
pair_style lj/cut/coul/long 4.568 500.0
pair_coeff 1 1 0.596 3.6 4.04 #PMAA atoms
pair_coeff 2 2 0.596 3.6 4.04 #PEG/PEO atoms
pair_coeff 3 3 0.108 2.31 2.59 #Na atoms
angle_style cosine
angle_coeff 1 1.09
angle_coeff 2 0.42
kspace_style pppm 1e-6
create_atoms 0 single 0 0 0 mol pol 123
Created 245 atoms
  using lattice units in orthogonal box = (-500 -500 -500) to (500 500 500)
  create_atoms CPU = 0.001 seconds
velocity all create 300.0 4928459
pair_modify shift yes mix arithmetic
fix nvt all langevin 300 300 100.0 6138895 gjf vfull
fix nve all nve
dump xtc all xtc 1000 PMAA_PEG.xtc
thermo		100000
timestep 2.0
run		50000000
PPPM initialization ...
  using 12-bit tables for long-range coulomb (src/kspace.cpp:342)
  G vector (1/distance) = 0.0045578333
  grid = 6 6 6
  stencil order = 5
  estimated absolute RMS force accuracy = 2.5786551e-06
  estimated relative force accuracy = 7.7655433e-09
  using double precision FFTW3
  3d grid and FFT values/proc = 1331 216
Generated 3 of 3 mixed pair_coeff terms from arithmetic mixing rule
Neighbor list info ...
  update every 1 steps, delay 10 steps, check yes
  max neighbors/atom: 2000, page size: 100000
  master list distance cutoff = 502
  ghost atom cutoff = 502
  binsize = 251, bins = 4 4 4
  1 neighbor lists, perpetual/occasional/extra = 1 0 0
  (1) pair lj/cut/coul/long, perpetual
      attributes: half, newton on
      pair build: half/bin/newton
      stencil: half/bin/3d
      bin: standard
Per MPI rank memory allocation (min/avg/max) = 16.46 | 16.46 | 16.46 Mbytes
   Step          Temp          E_pair         E_mol          TotEng         Press     
         0   299.62185     -163.35992      18.437848      72.998189     -0.0013922813 
    100000   296.42302     -168.15908      134.58731      182.02193     -0.009994132  
    200000   290.90361     -155.00682      122.63169      179.2042      -0.0076269618 
    300000   306.75472     -136.78949      107.30945      193.62809     -0.0064159521 
    400000   277.32093     -135.35879      113.57414      179.91575     -0.0077499668 
    500000   304.66092     -146.74846      112.7468       187.58361     -0.0047557989 
    600000   307.41084     -126.2435       107.68104      205.02287     -0.0046502708 
    700000   301.92701     -121.64028      89.652989      187.60955     -0.0017468823 
    800000   275.82163     -127.26674      103.21451      176.55772     -0.0046091558 
    900000   276.99123     -115.48351      102.50629      188.48339     -0.0033832505 
   1000000   300.46262     -120.02723      113.75252      212.25706     -0.0056690761 
   1100000   322.59259     -123.59021      122.37896      233.41603     -0.003776196  
   1200000   273.69183     -116.32083      112.84011      195.58019     -0.0057122362 
   1300000   292.26626     -126.98504      114.02287      199.60824     -0.0045692078 
   1400000   300.91026     -110.88851      99.80102       207.76986     -0.0029942967 
   1500000   288.56468     -117.97807      93.627797      185.52792     -0.0026404672 
   1600000   328.23064     -104.83812      98.897193      232.787       -0.00077147375
   1700000   303.00619     -105.48091      99.383768      214.28461     -0.0022952106 
   1800000   295.79741     -101.83847      101.72989      215.0301      -0.0025167308 
   1900000   285.66667     -98.303152      96.519522      205.98678     -0.0012636378 
   2000000   292.10548     -115.28097      93.610852      190.78335     -0.0019944919 
   2100000   300.17383     -125.28684      103.24168      196.27657     -0.002756535  
   2200000   326.94964     -122.24693      100.78926      216.33858     -0.0013480487 
   2300000   285.52273     -113.74155      93.97965       187.90382     -0.0020731471 
   2400000   300.71055     -117.24496      104.05371      205.52084      0.00052964402
   2500000   307.48575     -119.29432      110.90159      215.24708     -0.0019834386 
   2600000   281.46539     -108.58776      94.023511      190.1505      -0.00012536512
   2700000   326.14088     -131.43283      95.557928      201.33312     -0.00043873801
   2800000   296.38906     -111.46942      104.91749      209.01706     -0.00032735427
   2900000   268.15593     -106.23785      102.72245      191.51914     -0.0023683805 
   3000000   317.68657     -110.63454      100.89202      221.31653     -0.00033111224
   3100000   306.03339     -124.26385      98.616674      196.93631     -0.00024115958
   3200000   287.67665     -112.86662      94.082163      190.44784     -0.0018545694 
   3300000   286.86329     -113.93832      89.637059      184.33948     -0.00094323602
   3400000   299.45941     -114.22604      84.76364       188.33971      0.0017102159 
   3500000   297.62738     -105.87589      99.000796      209.59456     -0.0019387271 
   3600000   304.02112     -98.789876      95.128846      217.45889     -0.00066309979
   3700000   277.91444     -79.935094      90.246763      212.44374     -0.00019799009
   3800000   306.81473     -92.898064      102.8346       233.08831     -2.843096e-05 
   3900000   286.7765      -108.79813      114.95513      214.73461     -0.0013594466 
   4000000   293.64418     -101.15438      88.817122      201.23534      0.00029495263
   4100000   277.48389     -94.487108      93.599524      200.93135     -1.5487933e-05
   4200000   295.77998     -108.59531      90.693618      197.22431      0.0015908378 
   4300000   306.55937     -74.773776      83.144501      231.33676      0.0015619386 
   4400000   284.35359     -84.431007      89.094112      211.47849      0.00053143735
   4500000   309.679       -77.0904        99.662554      247.80716      0.0015412605 
   4600000   292.08824     -89.836011      91.361611      213.96654     -0.00022420584
   4700000   288.70676     -92.820324      105.32507      222.48627     -0.00032782399
   4800000   309.40975     -104.16878      96.983524      217.85392      0.00064591021
   4900000   313.24518     -93.404228      101.22897      235.6535       0.00069270859
   5000000   318.16389     -80.376776      95.21196       246.24139      0.0022465215 
   5100000   303.92628     -94.148005      80.295337      207.19828      0.00411383   
   5200000   282.89746     -99.227959      95.292775      201.82113      0.00028245855
   5300000   287.36539     -95.074483      91.633681      205.56512      0.0007168627 
   5400000   310.60392     -108.48415      102.99583      220.41939      0.0019300298 
   5500000   312.59815     -87.579854      90.163341      229.94164      0.0019569953 
   5600000   284.74816     -100.07627      108.82465      215.85075     -0.0011692288 
   5700000   301.06563     -94.345607      99.746894      224.37164     -0.00035482454
   5800000   305.43667     -105.1506       104.08887      221.08775      0.0021305058 
   5900000   305.00502     -108.164        100.25589      213.92743      0.0015706264 
   6000000   309.46376     -101.48787      101.28528      224.87586      0.00071164207
   6100000   302.60436     -96.885492      98.013831      221.21783      0.0020765024 
   6200000   309.63389     -96.480473      100.72003      229.44175      0.0011574859 
   6300000   307.03849     -79.065786      104.20573      248.45446      0.00091511014
   6400000   276.39097     -93.22388       106.38675      214.18691      0.00050769855
   6500000   307.68977     -80.990342      96.125652      238.92351      0.0018885068 
   6600000   316.01599     -97.913699      96.752993      228.68331      0.0014177328 
   6700000   307.92523     -99.753695      98.245567      222.45133      0.0025731741 
   6800000   337.52044     -108.65541      85.986164      222.81532      0.0021239728 
   6900000   306.03477     -99.492973      104.47198      227.56349      0.001532451  
   7000000   305.97488     -65.898341      96.01452       252.65711      0.00060323052
   7100000   283.77789     -89.261575      105.40677      222.54186     -0.0021865455 
   7200000   288.85519     -79.232992      95.342091      226.19858      0.0021073942 
   7300000   317.06421     -76.769697      101.22054      255.05724      0.0028449579 
   7400000   332.17244     -85.314732      97.786305      254.06645      0.0014539767 
   7500000   289.52003     -77.763137      102.12595      234.93585      0.00099643247
   7600000   275.17432     -68.196399      107.46148      239.40422      0.0010043796 
   7700000   294.56304     -74.00172       99.853674      240.09285      0.0021806416 
   7800000   293.28944     -73.75379       96.32994       235.89074      0.0019148641 
   7900000   277.67445     -76.943018      106.99559      232.0101       0.001078558  
   8000000   314.49651     -74.102862      108.61547      263.25148      0.0015652831 
   8100000   255.89207     -84.069922      93.560409      195.60531     -0.001362194  
   8200000   277.65579     -77.615536      102.88601      227.21443      0.001313706  
   8300000   309.2423      -84.385264      108.95307      249.48519      0.00058038762
   8400000   289.70692     -96.408465      101.0567       215.35719      0.00077633131
   8500000   312.02442     -86.461911      86.966523      227.44548      0.0026816736 
   8600000   280.06833     -82.636223      94.87998       215.94239      0.0014203859 
   8700000   307.75145     -83.944995      91.661004      231.54907      0.0028025534 
   8800000   292.94984     -71.982562      93.111637      234.19667      0.0028369611 
   8900000   315.72063     -68.391465      104.12959      265.36731      0.0012917148 
   9000000   265.22062     -72.102743      93.64248       214.43938      0.0014496532 
   9100000   306.57075     -91.207007      104.01616      235.78347      0.00027168903
   9200000   299.95871     -62.236681      86.244202      242.17278      0.0024548655 
   9300000   302.33121     -56.382865      102.45863      265.96659      0.00014491306
   9400000   306.7892      -87.862379      98.898932      234.16975      0.0021296089 
   9500000   304.71007     -78.747808      96.236939      239.11014      0.0021615939 
   9600000   324.13041     -80.843525      97.010292      251.91254      0.0039257251 
   9700000   326.07776     -61.947786      93.943339      269.15766      0.0033864554 
   9800000   316.0247      -73.542315      92.435444      248.74347      0.0012513071 
   9900000   285.4479      -89.672363      110.42971      228.36864     -0.00024731798
  10000000   326.86723     -87.955588      105.66487      255.44559      0.0024203048 
  10100000   289.74986     -80.571938      88.684378      218.85263      0.0042917756 
  10200000   284.82808     -72.830788      100.06369      234.3934       0.002167702  
  10300000   277.40441     -63.647216      89.943743      228.05765      0.0034146837 
  10400000   295.53661     -71.337625      95.829496      239.44087      0.001898268  
  10500000   282.47603     -66.587711      95.372628      234.23472      0.0021176012 
  10600000   312.69868     -95.030795      102.47332      234.87379      0.00047719756
  10700000   301.21652     -70.676906      104.53192      252.93511      0.0001904145 
  10800000   311.96216     -64.257094      106.48806      269.12655      0.0014746943 
  10900000   311.04175     -64.933122      96.303958      257.59699      0.003251679  
  11000000   297.01212     -71.209965      98.965437      243.77763      0.0014469    
  11100000   307.90419     -72.680541      105.33268      256.59629      0.0024640169 
  11200000   297.86656     -78.274925      92.688517      231.0572       0.0026207367 
  11300000   271.98023     -91.288815      103.73906      210.26627      0.0017759792 
  11400000   280.2304      -75.144529      97.241023      225.91301      0.0018379736 
  11500000   288.24682     -80.284693      96.500245      225.86255      0.0015411174 
  11600000   312.28084     -82.88071       103.43789      247.68454      0.0011567883 
  11700000   275.51432     -83.391986      100.97881      217.97325      0.00028353962
  11800000   295.04288     -93.447301      95.856012      216.9986       0.0014700366 
  11900000   297.25739     -81.827576      93.723649      228.09662      0.0011383717 
  12000000   281.44513     -99.195926      105.07688      210.58097     -0.00029489586
  12100000   308.91192     -87.066679      102.60307      240.21348      0.0017845837 
  12200000   297.36409     -94.614009      97.446587      219.11073      0.0023452942 
  12300000   297.31856     -91.686814      108.47656      233.03478      0.0010987347 
  12400000   287.816       -75.926766      106.93371      240.3406       0.00084811515
  12500000   299.74739     -88.358683      100.9755       230.62838      0.001188435  
  12600000   293.13754     -86.385473      100.89653      227.71516      0.00041417995
  12700000   280.45187     -74.111724      102.19152      232.05739      7.0819181e-05
  12800000   301.67557     -75.532631      108.74114      252.62248     -5.4302414e-05
  12900000   302.52595     -92.23977       93.939857      221.73255      0.001915387  
  13000000   289.52182     -72.458612      102.13167      240.24739      0.00082610756
  13100000   300.67231     -98.464454      106.38821      226.60804      0.00042659596
  13200000   334.55102     -86.140381      92.575651      249.76013      0.0028039609 
  13300000   295.60592     -84.416009      87.479698      218.06309      0.0028405352 
  13400000   280.83503     -101.44226      103.84594      206.65995      0.0014004811 
  13500000   303.01444     -94.424019      103.99567      229.9594       0.00083613968
  13600000   301.60964     -88.021293      98.913597      230.25832      0.0014759391 
  13700000   320.81756     -105.22297      92.515956      220.62926      0.0026235617 
  13800000   323.43441     -93.414587      92.076125      233.90109      0.0042072952 
  13900000   306.74762     -94.542847      112.94058      241.5007       0.00056200031
  14000000   295.45615     -97.877995      100.37587      217.38834      0.0015840495 
  14100000   271.96811     -80.644621      106.56418      223.72676      0.00022089398
  14200000   314.0226      -77.295698      99.155462      250.25394     -1.1786961e-05
  14300000   298.32933     -68.826585      101.64134      249.79494      0.00037963164
  14400000   314.30067     -73.223189      80.366233      235.73947      0.0040525611 
  14500000   296.0295      -62.715978      96.474108      249.06561      0.0019644835 
  14600000   291.52073     -69.041116      90.511112      233.49817      0.0020529067 
  14700000   291.55823     -89.226326      95.371212      218.20033      0.0027942524 
  14800000   297.34301     -85.570562      90.726048      221.41831      0.0037270652 
  14900000   302.37182     -96.307547      103.67313      227.28595      0.0013710354 
  15000000   294.34597     -88.032612      84.455709      210.50612      0.0034181545 
  15100000   301.83778     -76.905027      103.30592      245.93283      0.002809218  
  15200000   293.0762      -73.9808        95.780984      234.95968      0.0041020829 
  15300000   299.4121      -82.33317       92.8563        228.29084      0.0014990719 
  15400000   292.06247     -98.825366      110.08389      223.68072      0.0017870815 
  15500000   275.07858     -67.042743      112.1142       245.14097     -2.6358145e-05
  15600000   295.12556     -82.028034      92.672192      225.29419      0.0025856105 
  15700000   309.17708     -84.450635      99.68934       240.10865      0.0016632248 
  15800000   296.94865     -87.96773       102.36101      230.36927      0.0016828317 
  15900000   295.36037     -74.426377      79.808505      220.20294      0.003593065  
  16000000   307.16275     -72.293036      89.493363      240.60522      0.0040586047 
  16100000   333.04773     -77.754773      102.54554      267.02226      0.0030564695 
  16200000   297.76866     -82.670056      103.87725      237.7796       0.0016367727 
  16300000   298.98545     -79.374064      96.141702      234.22503      0.0036856941 
  16400000   298.69702     -79.801245      97.322482      234.76885      0.0028894958 
  16500000   311.07977     -89.362791      93.381544      230.27256      0.0020124866 
  16600000   296.23427     -81.987615      100.16651      233.63532      0.0015593622 
  16700000   296.24421     -89.568723      101.1933       227.08822      0.0020567068 
  16800000   305.38598     -111.045        96.207286      207.2749       0.0040828131 
  16900000   299.30623     -94.284542      94.820743      218.2269       0.0033359628 
  17000000   299.10398     -97.452596      82.701434      202.79244      0.0026062202 
  17100000   278.61362     -88.377189      97.746106      212.00952      0.001049777  
  17200000   280.88657     -77.745961      112.23372      238.78152     -0.00043895678
  17300000   278.28184     -105.97395      109.93756      206.36289      0.0012699106 
  17400000   313.50914     -94.905049      89.156176      222.27186      0.0030740907 
  17500000   298.24905     -95.522129      97.145569      218.54524      0.0027555801 
  17600000   299.12655     -89.602987      93.756013      221.71305      0.0021342341 
  17700000   333.26756     -91.002161      105.52005      256.90927      0.0021877007 
  17800000   298.43705     -75.34871       91.294369      233.00419      0.0034699523 
  17900000   293.59735     -80.131313      96.137089      229.54431      0.0022225709 
  18000000   323.5622      -80.81199       98.786751      253.30726      0.0021943796 
  18100000   325.03743     -83.4232        83.437081      236.41934      0.0045115349 
  18200000   321.2193      -78.529168      99.875498      254.9748       0.0017813382 
  18300000   277.54442     -89.064629      96.922832      209.72116      0.0014715174 
  18400000   301.58569     -81.41082       108.65678      246.59456      0.0017965084 
  18500000   316.00051     -59.102859      93.550472      264.28036      0.0035387844 
  18600000   312.16841     -80.369545      95.66584       242.34189      0.0020793038 
  18700000   372.09752     -84.499734      107.14646      293.27981      0.003209207  
  18800000   290.47078     -74.729275      92.118522      228.65378      0.0045681709 
  18900000   309.56048     -72.472628      89.669427      242.3456       0.0031533882 
  19000000   288.85054     -79.824326      95.135161      225.39693      0.0024513687 
  19100000   298.84787     -79.630119      110.47943      248.20664      0.00046277073
  19200000   313.5664      -80.422376      93.67096       241.31096      0.0013797059 
  19300000   305.64501     -81.867618      104.3899       244.8233       0.0017513182 
  19400000   295.42664     -96.953058      96.99846       214.91441      0.0025566549 
  19500000   293.55685     -93.47928       98.337929      218.36773      0.0024568307 
  19600000   305.6732      -88.834545      90.518993      224.00596      0.0044212619 
  19700000   308.2106      -83.774992      93.766495      234.15851      0.0026563609 
  19800000   299.48193     -71.809399      100.24961      246.25871      0.0014078431 
  19900000   313.5648      -84.824722      107.93231      251.1688       0.0019239956 
  20000000   296.29763     -77.02691       99.985675      238.46126      0.0017336877 
  20100000   299.13458     -63.9402        93.346652      246.97231      0.002993418  
  20200000   288.29285     -82.907887      108.44836      235.22095     -0.00079527737
  20300000   278.01925     -84.36052       106.86201      224.7098      -0.0019806186 
  20400000   306.74232     -60.478455      89.021341      251.64199      0.0037227905 
  20500000   281.6543      -88.510668      92.738171      209.07965      0.00088654572
  20600000   330.37519     -78.384803      93.423737      255.32664      0.0038327014 
  20700000   315.69564     -61.546744      111.97611      280.04038      0.00034146217
  20800000   285.78201     -77.141409      113.81446      244.52735      0.0016369242 
  20900000   308.28762     -87.817004      95.198395      231.60442      0.0025545378 
  21000000   289.62682     -77.432013      103.94174      237.16042     -0.00014931535
  21100000   318.59738     -76.98157       97.46089       252.20082      0.001817528  
  21200000   285.29019     -77.734964      111.02482      240.78644     -0.00083399009
  21300000   309.24415     -76.129944      104.77807      253.56685      0.00077243752
  21400000   295.03733     -71.265699      84.699997      228.02016      0.0032783501 
  21500000   283.8825      -92.431474      96.273758      210.31504      0.0019581312 
  21600000   306.03907     -80.164173      101.04573      243.46918      0.0014871973 
  21700000   289.70598     -64.081683      86.331181      232.95777      0.0026556004 
  21800000   319.56141     -56.891059      100.12756      275.65915      0.0029626882 
  21900000   286.48606     -74.315368      98.967836      233.01884      0.0025532086 
  22000000   290.36596     -68.785165      102.5191       244.92222      0.0006146333 
  22100000   306.68755     -67.410879      104.73367      260.38206      0.0026800427 
  22200000   292.33183     -80.76644       94.241278      226.09294      0.001342464  
  22300000   295.57477     -79.320564      102.53871      238.19489      0.0017587692 
  22400000   282.55458     -80.563659      96.15785       221.10113      0.0014814175 
  22500000   316.19621     -85.987277      99.294611      243.28242      0.002278894  
  22600000   322.16355     -90.452441      100.0545       243.91729      0.0016886523 
  22700000   317.66276     -104.42127      105.92219      232.54266     -5.4444625e-05
  22800000   278.76825     -86.03587       108.49428      225.21148     -0.00041371384
  22900000   290.96601     -89.044736      95.63782       218.2178       0.00039508918
  23000000   306.05309     -98.556694      94.047347      218.08847      0.00079743622
  23100000   279.14908     -75.029404      92.064763      220.06542      0.00099608316
  23200000   290.41682     -85.453576      99.468106      225.23981      0.0018739979 
  23300000   280.87452     -82.631036      100.91727      222.57122     -0.0011486329 
  23400000   294.07619     -83.509799      95.634965      226.01197      0.0017563568 
  23500000   324.03033     -73.484283      84.387111      246.57581      0.0018852    
  23600000   311.81258     -76.959053      98.984461      248.8122       0.0012502561 
  23700000   297.74468     -89.819059      102.45908      229.19498      0.00023160778
  23800000   274.59236     -73.192108      98.385081      224.90884     -0.00037647692
  23900000   297.3684      -84.312178      102.56734      234.53645      0.00065561131
  24000000   291.39935     -104.82079      105.13786      212.25696      0.0013471053 
  24100000   325.9393      -90.49733       99.547344      246.11142      0.0018037913 
  24200000   281.96189     -75.379784      101.22603      230.92211      0.0012863629 
  24300000   292.19065     -95.450643      96.236277      213.30105      0.0004443542 
  24400000   295.61006     -83.359644      108.85146      240.49423      0.0013684529 
  24500000   297.5157      -75.274725      102.73517      243.84887      0.0012997022 
  24600000   287.25247     -84.916652      110.68895      234.69609      0.0012570809 
  24700000   297.81144     -79.73187       99.192428      236.06408      0.0023061293 
  24800000   286.71087     -76.597297      103.59377      235.52635     -0.00019157921
  24900000   308.10382     -87.633546      94.519924      230.97572      0.00053812074
  25000000   276.45335     -61.199463      89.344148      229.21409      0.0008949294 
  25100000   313.84472     -81.688906      97.646491      244.22239      0.0024355328 
  25200000   303.45934     -92.197319      98.362168      226.87618      0.00078814378
  25300000   304.65066     -94.17999       100.43294      227.83075      0.0024104844 
  25400000   313.3324      -80.530885      93.328913      240.69021      0.0034701907 
  25500000   292.11849     -76.943424      96.4617        231.98121      0.001927807  
  25600000   304.10423     -82.846528      92.062868      230.39672      0.0029268009 
  25700000   306.18847     -96.960241      96.806124      222.54216      0.0032374585 
  25800000   306.05121     -73.233105      108.52127      257.88461      0.0012500118 
  25900000   297.96922     -82.14732       104.50771      239.07867      0.0012236493 
  26000000   287.21652     -85.054435      102.89667      226.73988      0.00025139739
  26100000   295.44419     -78.549131      90.961533      227.29417      0.0021508321 
  26200000   269.08784     -75.909199      98.619836      218.42297      0.00083025659
  26300000   298.52063     -75.409686      103.40246      245.1121      -0.00015241666
  26400000   314.12818     -79.326326      98.345263      247.48991      0.0029504589 
  26500000   288.39963     -85.005168      90.933596      215.68657      0.002484371  
  26600000   292.4189      -75.427645      106.87753      244.13131      0.0012998156 
  26700000   306.3204      -91.97129       107.66082      238.48176      0.00030608189
  26800000   327.65697     -74.857461      100.33245      263.78569      0.0017744511 
  26900000   306.79009     -73.417173      105.43284      255.14952      0.00076494155
  27000000   284.02709     -79.82767       88.226745      214.97699      0.0019645859 
  27100000   301.55381     -69.086421      97.269599      247.50859      0.0022273204 
  27200000   307.4708      -76.780885      99.784839      246.6329       0.0014514608 
  27300000   295.78821     -87.448447      96.77496       224.4585       0.0019642161 
  27400000   317.38314     -87.920477      84.70684       227.62472      0.0037856006 
  27500000   316.50092     -86.904202      103.7511       247.0436       0.0024495926 
  27600000   319.51803     -76.659644      96.807054      252.53851      0.0023572316 
  27700000   298.53968     -84.760268      81.397855      213.77076      0.0025534156 
  27800000   294.42936     -86.236431      102.35427      230.2615       0.0018152194 
  27900000   327.74332     -77.19424       89.176728      250.35599      0.0031920584 
  28000000   314.71282     -75.009946      97.576879      251.46312      0.0010924009 
  28100000   311.99516     -91.783352      102.01321      237.14945      0.0018385224 
  28200000   307.70946     -82.020647      96.096855      237.87873      0.0019876383 
  28300000   271.7508      -72.0556        105.08172      230.67527     -0.00093272261
  28400000   297.02347     -88.497472      101.30873      228.84167      0.00022385355
  28500000   328.24002     -69.434267      93.786033      263.08653      0.0027782351 
  28600000   292.13949     -94.726713      90.506776      208.25827      0.0023913205 
  28700000   298.3142      -92.389634      94.815259      219.39481      0.0024001493 
  28800000   293.88301     -77.250675      102.82483      239.32046      0.0022155567 
  28900000   277.96347     -96.079976      102.3882       208.47596     -2.1307966e-05
  29000000   284.99747     -83.777453      101.81913      225.32537      0.0023130391 
  29100000   308.71809     -71.845077      95.498896      248.18993      0.001957249  
  29200000   320.66903     -79.382412      107.36941      261.21524      0.0007487634 
  29300000   291.51837     -68.043882      105.72698      249.70956     -0.00055934807
  29400000   284.7254      -76.84491       102.30367      232.54457      0.0016383109 
  29500000   322.17355     -74.681504      90.615827      250.25683      0.0048202569 
  29600000   305.78909     -70.277285      99.613266      251.74178      0.0034707809 
  29700000   324.56617     -70.354813      104.27345      269.98134      0.0018569154 
  29800000   286.37555     -79.120721      98.531771      227.69704      0.0012862292 
  29900000   303.16341     -87.408035      92.764459      225.85253      0.0026804834 
  30000000   298.24226     -61.531582      109.60279      264.98807      0.00050264794
  30100000   294.00806     -89.036462      91.451897      216.25269      0.0032222102 
  30200000   317.7241      -77.084748      91.870289      245.87189      0.0037329124 
  30300000   320.73996     -98.533941      112.66676      247.41266      0.0010609389 
  30400000   305.86705     -88.262804      95.072935      229.27264      0.0035472811 
  30500000   310.86296     -86.319297      101.52853      241.30535     -8.2686846e-05
  30600000   320.50764     -88.319456      96.349241      241.14065      0.0026045724 
  30700000   314.97105     -82.881873      102.22941      248.43154      0.00085451242
  30800000   309.25069     -81.424223      96.32097       239.82023      0.0015089129 
  30900000   289.81581     -70.560003      102.65717      242.88532      0.0013281689 
  31000000   321.69389     -76.318572      109.65719      267.31226      0.0038800563 
  31100000   308.99003     -77.857242      97.710763      244.58742      0.0026719604 
  31200000   334.10237     -64.806379      97.723833      275.91601      0.0042801304 
  31300000   284.89009     -63.375242      102.50994      246.3403      -9.5292808e-05
  31400000   303.80414     -70.184568      104.41634      255.19389      0.0013683598 
  31500000   310.08096     -71.161443      97.268341      251.63425      0.0024411201 
  31600000   298.39811     -71.547722      101.09771      246.5802       0.0039323689 
  31700000   332.90282     -85.479197      103.66169      260.30859      0.0025712848 
  31800000   341.09028     -83.67807       104.44625      268.84916      0.0020188963 
  31900000   311.74553     -67.310313      92.608264      252.03598      0.0045438505 
  32000000   284.51308     -81.233622      107.99061      233.68838      0.0011310736 
  32100000   310.06696     -80.201476      100.96953      246.28522      0.0015865667 
  32200000   295.36401     -82.129137      96.29832       228.99264      0.001936948  
  32300000   292.62655     -77.028363      98.745954      234.55005      0.0028435709 
  32400000   298.05472     -83.132324      98.585175      232.23331      0.0013772676 
  32500000   300.15692     -83.922319      96.419697      230.80681      0.0016185468 
  32600000   307.07454     -101.87586      100.70564      222.17052      0.0015780542 
  32700000   308.13133     -94.196039      93.152049      223.06536      0.0016149028 
  32800000   303.47928     -101.20926      106.71215      226.22873      0.0024132282 
  32900000   298.73887     -89.417291      100.24422      228.10498      0.0014952305 
  33000000   294.2293      -77.731108      101.91895      238.186        0.00084668024
  33100000   319.33856     -79.672251      90.716666      243.30499      0.0027016678 
  33200000   292.89397     -86.500559      106.18072      232.70711      0.00083582215
  33300000   316.33298     -76.172541      95.389665      249.29168      0.0016161634 
  33400000   313.81235     -70.267049      103.34027      261.31448      0.00056067348
  33500000   284.35282     -75.852271      97.812172      228.77472      0.0012683476 
  33600000   344.29102     -86.320816      95.942108      260.03023      0.0026075705 
  33700000   296.33306     -82.832951      104.76117      237.45649      8.1281947e-05
  33800000   285.77098     -77.083972      94.684178      225.44648      0.0025675403 
  33900000   287.18308     -83.069324      90.327986      216.13199      0.0014276777 
  34000000   311.18572     -68.66572       95.773923      253.43907      0.0030496634 
  34100000   312.80459     -82.36062       94.472001      239.61968      0.0021379353 
  34200000   288.24516     -84.144205      95.861213      221.3628       0.0010554233 
  34300000   315.21435     -76.175772      105.90978      258.99496     -7.7761605e-05
  34400000   284.79958     -82.756869      101.04951      225.4324       0.0023417002 
  34500000   293.79535     -73.166494      95.45362       235.96967      0.0027428552 
  34600000   322.52967     -83.302431      88.201508      239.4806       0.0036082985 
  34700000   322.94501     -81.493009      94.815685      248.20629      0.0032990668 
  34800000   290.49806     -78.650915      97.56165       230.19511      0.0015861598 
  34900000   323.48853     -66.957151      91.998449      260.32022      0.0042537456 
  35000000   297.06675     -63.997488      105.70501      257.76942      0.0016518311 
  35100000   302.7805      -63.450626      97.607588      254.37456      0.0030315711 
  35200000   323.28151     -65.353399      99.119895      268.89485      0.0024098451 
  35300000   303.46513     -72.445133      103.83157      252.10198      0.0023053024 
  35400000   273.45415     -88.008983      101.32083      212.19987      0.0020696873 
  35500000   276.45119     -62.330855      93.492192      232.22917      0.0017886719 
  35600000   301.55191     -74.710538      102.5557       247.16919      0.0016648119 
  35700000   315.36911     -76.898221      106.76034      259.23564      0.0039413463 
  35800000   302.71202     -87.717831      103.09613      235.54609      0.0037670495 
  35900000   282.12705     -76.123661      92.268328      221.34065      0.0015502735 
  36000000   310.59092     -82.5613        105.13759      248.47454     -0.00016528771
  36100000   315.06293     -74.457854      101.49575      256.18872      0.0035650098 
  36200000   305.80876     -73.244756      97.426631      246.60198      0.0033507507 
  36300000   326.93175     -71.65133       99.918901      266.0508       0.0027319967 
  36400000   308.68851     -70.623068      98.594852      252.48639      0.0013298983 
  36500000   311.09224     -82.076673      105.6921       249.8783      -0.00012004154
  36600000   335.07493     -75.289054      95.338105      263.75497      0.0028290341 
  36700000   321.44128     -72.319445      95.80327       257.27374      0.0033500609 
  36800000   336.7176      -86.80146       83.786517      241.88571      0.0052009477 
  36900000   316.79153     -76.59819       89.544495      243.35438      0.0036340928 
  37000000   281.34571     -63.64276       100.06876      241.05369      0.0018931148 
  37100000   305.14925     -66.043838      103.45002      259.34661      0.00043425663
  37200000   294.80115     -73.520986      105.41894      246.31204      0.00022724131
  37300000   278.74013     -55.869029      103.78722      250.65081      0.00051146325
  37400000   290.47532     -84.371398      101.53971      228.43614      0.0030330057 
  37500000   290.39966     -70.968047      102.26384      242.50859      0.00060513347
  37600000   307.13464     -85.606607      90.180177      227.95802      0.0022623149 
  37700000   297.39163     -69.395697      90.695169      237.59766      0.001558236  
  37800000   295.49586     -61.900673      106.28442      259.3031       0.00114919   
  37900000   290.49756     -71.289686      91.536771      231.53109      0.0035178514 
  38000000   302.0906      -64.787718      110.51372      265.44183      0.0012342034 
  38100000   300.37038     -73.742112      103.34357      248.06614      0.0019392842 
  38200000   298.29306     -69.785538      110.4739       257.64217      0.0014351342 
  38300000   300.89724     -65.135935      94.383132      248.09507      0.002557919  
  38400000   276.70769     -66.645644      101.46944      236.07819      0.0014640246 
  38500000   279.26338     -65.309866      104.36289      242.16621      0.00049992054
  38600000   287.45687     -71.819407      95.727002      232.98005      0.0017421713 
  38700000   305.64104     -62.752805      98.040256      257.58557     -0.00069350507
  38800000   310.16088     -82.816639      95.187049      237.95589      0.0014991361 
  38900000   320.70259     -56.704874      92.734209      269.28199      0.0027032217 
  39000000   301.77791     -69.663913      103.27109      253.09558      0.001185452  
  39100000   280.10231     -58.144979      94.533016      240.11139      0.0021648802 
  39200000   283.68965     -66.759114      94.837684      234.41106      0.0012173913 
  39300000   283.96888     -55.507986      98.813836      249.84143      0.00076131622
  39400000   321.35404     -55.487108      100.27339      278.51275      0.0048255996 
  39500000   301.45377     -70.117823      101.8412       250.97603      0.0026647266 
  39600000   311.00503     -72.928581      100.17186      253.44273      0.0022916392 
  39700000   324.65914     -78.88683       112.30611      269.5496       0.0018614708 
  39800000   289.9378      -81.688017      99.826764      229.01563      0.0022534953 
  39900000   260.73538     -69.693872      102.33192      222.27549     -0.00044135413
  40000000   310.94825     -51.909902      97.57505       271.8233       0.0016196334 
  40100000   292.88359     -77.853757      95.951759      231.11741      0.0029850593 
  40200000   322.42112     -68.617012      88.228397      254.11396      0.0034527478 
  40300000   295.23619     -57.1524        105.29724      262.87534      0.0012018618 
  40400000   309.64105     -56.638776      78.249674      246.8183       0.0047541961 
  40500000   295.02978     -37.620686      97.025732      273.98541      0.002656355  
  40600000   318.35275     -55.032719      99.402913      275.91377      0.0034626823 
  40700000   293.80551     -63.848142      94.724354      244.56615      0.0030157552 
  40800000   287.68528     -54.79846       98.303228      252.74335      0.0020397454 
  40900000   305.49922     -57.13808       100.76333      265.82023      0.00062277959
  41000000   319.06848     -55.90179       100.68037      276.84272      0.0024712618 
  41100000   294.80611     -49.915255      92.356079      256.85851      0.0029532642 
  41200000   285.23326     -68.007861      109.65943      249.10676      0.00064300759
  41300000   291.5043      -64.094568      92.338935      240.26059      0.0021734492 
  41400000   282.28181     -55.907592      100.66073      250.06168      0.0014483856 
  41500000   285.0701      -62.661654      104.19597      248.87083      0.00031329211
  41600000   297.35901     -73.105159      103.00517      246.17447      0.00054400857
  41700000   290.97304     -73.263648      103.83217      242.19835      0.001081078  
  41800000   310.95238     -54.706933      107.77953      279.23375      0.0017259508 
  41900000   294.55765     -56.990416      96.898107      254.14467      0.001792672  
  42000000   305.23192     -65.021461      95.733754      252.71286      0.0022186857 
  42100000   292.82897     -73.361403      101.42404      241.04232      0.0019187984 
  42200000   296.87296     -69.283635      108.47016      255.10746      0.0010059774 
  42300000   303.67669     -70.440692      93.858071      244.2868       0.0010063445 
  42400000   282.066       -62.029956      107.32878      250.4504      -0.0014626562 
  42500000   290.73722     -57.197301      102.37958      256.64059      0.0029772527 
  42600000   297.13752     -67.885546      98.579889      246.80771      0.0020275377 
  42700000   299.08632     -82.831544      99.439589      234.1388       0.0017046626 
  42800000   307.80577     -65.009855      93.998057      252.86077      0.0014300818 
  42900000   305.86395     -76.494557      104.8664       250.83209      0.0012652481 
  43000000   298.2124      -73.499506      95.877797      239.27343      0.0013480391 
  43100000   300.79125     -72.589079      91.879963      238.06167      0.0013252869 
  43200000   312.97158     -76.70123       86.041067      236.96959      0.003385915  
  43300000   269.96295     -75.629123      86.19005       206.90974      0.0014286251 
  43400000   289.67841     -105.37036      96.655292      201.97316      0.00024392676
  43500000   294.37828     -77.065608      103.29558      240.33649      0.0014187589 
  43600000   283.16608     -85.363966      92.56002       213.14774      0.0015001695 
  43700000   272.28594     -85.584143      117.20039      229.65462     -0.0021017421 
  43800000   281.83454     -62.636736      90.259137      232.60563      0.0010641675 
  43900000   311.36591     -80.885611      99.958085      245.5344       0.0029375759 
  44000000   297.5035      -95.51715       101.16757      222.02996      0.0017366476 
  44100000   294.82281     -94.637975      98.148902      217.94076      0.00093210445
  44200000   305.54206     -93.353287      91.008531      219.88138      0.0022735513 
  44300000   313.47293     -100.94296      106.28009      233.33152      2.7677331e-06
  44400000   326.07086     -97.397837      91.194754      230.95401      0.0027849843 
  44500000   298.43245     -88.654416      95.679037      224.07981      0.0025564897 
  44600000   320.05326     -71.481371      105.5433       266.84231      0.0018307359 
  44700000   339.08056     -85.754547      98.65951       259.52424      0.001665976  
  44800000   322.27843     -94.943327      102.38645      241.84192      0.001469311  
  44900000   321.20286     -76.225703      97.237336      254.62815      0.00075723793
  45000000   269.42935     -69.967745      100.84106      226.83403      0.00075984546
  45100000   286.40623     -77.667909      99.032422      229.67282      0.0018670386 
  45200000   308.18316     -81.058946      98.814275      241.90238      0.002150715  
  45300000   308.27234     -82.808037      96.372146      237.77602      0.0025229726 
  45400000   306.4725      -80.639802      96.121466      238.38452      0.0033806729 
  45500000   282.27981     -90.535663      112.52028      227.2917      -0.00066446893
  45600000   289.04069     -112.52672      113.13032      210.82799      0.00019245573
  45700000   283.71825     -95.826064      101.11603      211.64325      0.0013179049 
  45800000   298.19422     -84.084905      98.254341      231.05136      0.0017235164 
  45900000   336.36949     -91.495203      104.74627      257.89854      0.0025809416 
  46000000   289.26249     -98.573381      98.495318      210.30765      0.0016020781 
  46100000   308.51606     -104.66926      110.59657      230.31648      0.0028965705 
  46200000   286.54749     -92.026217      96.304866      212.6897       0.00084058435
  46300000   332.19374     -114.57919      96.44291       223.47409      0.0028027085 
  46400000   323.7768      -100.72229      97.716575      232.48287      0.0033053851 
  46500000   314.10395     -91.977315      94.624438      231.10047      0.0016728485 
  46600000   325.79674     -95.220059      99.26127       240.99893      0.00158083   
  46700000   323.58689     -98.001612      99.953451      237.3023       0.0034099128 
  46800000   319.3765      -95.414358      111.49717      248.37098      0.00065207085
  46900000   304.30763     -96.508636      96.461444      221.28112      0.0031456713 
  47000000   284.99842     -102.97679      108.67302      212.98061     -0.00037383228
  47100000   308.81215     -105.36137      103.90712      223.15028      0.00082809975
  47200000   319.46248     -109.48047      95.2723        218.14253      0.003159105  
  47300000   303.42223     -106.9996       87.566584      201.25133      0.0034826819 
  47400000   310.01951     -106.91278      93.612617      212.18251      0.0021362418 
  47500000   285.25642     -101.9495       94.616728      200.13925      0.0011458888 
  47600000   306.95906     -109.31395      105.46453      219.40732      0.0016047995 
  47700000   287.35907     -79.186357      98.996629      228.8116       0.00026381432
  47800000   302.33622     -77.317961      102.44126      245.01777      0.0011325499 
  47900000   335.88757     -88.170011      106.47913      262.60608      0.0040046389 
  48000000   292.85388     -83.79055       101.25475      230.46199      0.00040834658
  48100000   315.1436      -92.681222      98.739175      235.26746      0.004560786  
  48200000   285.74248     -90.861387      96.710446      213.67461      0.00024330636
  48300000   279.72483     -90.086754      119.65803      233.02009     -0.0011939006 
  48400000   304.89982     -92.458172      95.469851      224.7707       0.0019361961 
  48500000   276.04205     -90.257608      113.05245      223.5651       0.00032003583
  48600000   289.27198     -80.722645      92.593337      222.26331      0.0023541018 
  48700000   298.00748     -71.913812      90.625736      235.45803      0.0018411404 
  48800000   316.36277     -80.105452      99.573453      249.56422      0.0022816891 
  48900000   319.95048     -66.123985      92.201429      258.78308      0.0039338066 
  49000000   313.70245     -64.456218      101.89873      265.60385      0.0017231467 
  49100000   301.87905     -65.155911      100.16458      254.57063      0.0010786301 
  49200000   300.56948     -72.08292       107.41263      253.93919      0.0011353004 
  49300000   319.09378     -57.227262      88.702083      263.55736      0.0026746754 
  49400000   305.51092     -74.788086      97.007888      244.42329      0.0018993308 
  49500000   321.65937     -72.951033      106.24805      267.24556      0.0022777069 
  49600000   265.70684     -73.542165      101.33316      221.04427      0.0015103394 
  49700000   304.62063     -69.011265      100.13555      252.68025      0.0023341673 
  49800000   307.61294     -67.64351       100.42149      256.5103       0.0021814534 
  49900000   298.82608     -80.068815      88.465906      225.73857      0.002214224  
  50000000   299.56978     -67.5837        103.1903       253.48899      0.0016757367 
Loop time of 18955.6 on 1 procs for 50000000 steps with 245 atoms

Performance: 455.801 ns/day, 0.053 hours/ns, 2637.737 timesteps/s
75.4% CPU use with 1 MPI tasks x no OpenMP threads

MPI task timing breakdown:
Section |  min time  |  avg time  |  max time  |%varavg| %total
---------------------------------------------------------------
Pair    | 12642      | 12642      | 12642      |   0.0 | 66.69
Bond    | 163.69     | 163.69     | 163.69     |   0.0 |  0.86
Kspace  | 3490.7     | 3490.7     | 3490.7     |   0.0 | 18.41
Neigh   | 323.54     | 323.54     | 323.54     |   0.0 |  1.71
Comm    | 263.5      | 263.5      | 263.5      |   0.0 |  1.39
Output  | 2.2825     | 2.2825     | 2.2825     |   0.0 |  0.01
Modify  | 1993.2     | 1993.2     | 1993.2     |   0.0 | 10.51
Other   |            | 77.03      |            |       |  0.41

Nlocal:            245 ave         245 max         245 min
Histogram: 1 0 0 0 0 0 0 0 0 0
Nghost:           1947 ave        1947 max        1947 min
Histogram: 1 0 0 0 0 0 0 0 0 0
Neighs:          25959 ave       25959 max       25959 min
Histogram: 1 0 0 0 0 0 0 0 0 0

Total # of neighbors = 25959
Ave neighs/atom = 105.9551
Ave special neighs/atom = 3.5020408
Neighbor list builds = 1476872
Dangerous builds = 0
write_data PMAA_PEG.data
System init for write_data ...
PPPM initialization ...
  using 12-bit tables for long-range coulomb (src/kspace.cpp:342)
  G vector (1/distance) = 0.0045578333
  grid = 6 6 6
  stencil order = 5
  estimated absolute RMS force accuracy = 2.5786551e-06
  estimated relative force accuracy = 7.7655433e-09
  using double precision FFTW3
  3d grid and FFT values/proc = 1331 216
Generated 3 of 3 mixed pair_coeff terms from arithmetic mixing rule
Total wall time: 5:15:55
