LAMMPS (23 Jun 2022)

units real
boundary p p p
atom_style full
region mybox block -500.000000 500.000000 -500.000000 500.000000 -500.000000 500.000000
create_box 2 mybox bond/types 1 angle/types 0 dihedral/types 0 extra/special/per/atom 20 extra/bond/per/atom 20 extra/angle/per/atom 20
Created orthogonal box = (-500 -500 -500) to (500 500 500)
  1 by 1 by 1 MPI processor grid
#variable string MAA type 1
#variable Na type 2
molecule pol PDMAEMA.mol
Read molecule template pol:
  1 molecules
  0 fragments
  200 atoms with max type 2
  99 bonds with max type 1
  0 angles with max type 0
  0 dihedrals with max type 0
  0 impropers with max type 0
mass 1 157.21
mass 2 35.453
bond_style harmonic
bond_coeff 1 0.57 5
pair_style lj/cut/coul/long 4.568 500.0
pair_coeff 1 1 0.7 4.0 4.49
pair_coeff 2 2 0.1 4.3 4.8
kspace_style pppm 1e-6
create_atoms 0 single 0 0 0 mol pol 123
Created 200 atoms
  using lattice units in orthogonal box = (-500 -500 -500) to (500 500 500)
  create_atoms CPU = 0.002 seconds

velocity all create 300.0 4928459
pair_modify shift yes mix arithmetic
fix nvt all langevin 300 300 100.0 6138895 gjf vfull
fix nve all nve
dump xtc all xtc 1000 PDMAEMA.xtc
thermo      10000
timestep 2
run     1000000
PPPM initialization ...
  using 12-bit tables for long-range coulomb (src/kspace.cpp:342)
  G vector (1/distance) = 0.0042895475
  grid = 6 6 6
  stencil order = 5
  estimated absolute RMS force accuracy = 0.00018841187
  estimated relative force accuracy = 5.6739676e-07
  using double precision FFTW3
  3d grid and FFT values/proc = 1331 216
Generated 1 of 1 mixed pair_coeff terms from arithmetic mixing rule
Neighbor list info ...
  update every 1 steps, delay 10 steps, check yes
  max neighbors/atom: 2000, page size: 100000
  master list distance cutoff = 502
  ghost atom cutoff = 502
  binsize = 251, bins = 4 4 4
  1 neighbor lists, perpetual/occasional/extra = 1 0 0
  (1) pair lj/cut/coul/long, perpetual
      attributes: half, newton on
      pair build: half/bin/newton
      stencil: half/bin/3d
      bin: standard
Per MPI rank memory allocation (min/avg/max) = 16.43 | 16.43 | 16.43 Mbytes
   Step          Temp          E_pair         E_mol          TotEng         Press     
         0   300.48247     -13203.7        65.819952     -12959.639     -0.26059743   
     10000   302.72454     -31304.375      1244.5666     -29880.238     -0.16159708   
     20000   316.36782     -32470.465      1448.7999     -30834.002     -0.15441555   
     30000   315.28143     -33275.599      1578.5139     -31510.066     -0.15275241   
     40000   312.95754     -34022.109      1707.3053     -32129.163     -0.13358085   
     50000   299.48041     -34541.69       1745.9406     -32618.103     -0.12454618   
     60000   281.71093     -34686.43       1673.8773     -32845.447     -0.11931585   
     70000   285.10297     -34971.53       1647.4995     -33154.913     -0.13282798   
     80000   278.71027     -35037.085      1561.5099     -33310.249     -0.12512935   
     90000   315.86638     -35058.391      1481.3763     -33389.649     -0.13047092   
    100000   294.27843     -35419.832      1511.2692     -33734.002     -0.085257253  
    110000   322.46176     -35599.184      1533.0099     -33874.895     -0.086029092  
    120000   301.82297     -35606.372      1426.0351     -34001.301     -0.087316726  
    130000   330.82095     -35670.781      1370.5896     -34103.955     -0.074415327  
    140000   319.50032     -35697.577      1312.1954     -34195.86      -0.099422022  
    150000   337.20369     -35837.541      1302.2288     -34335.29      -0.086763025  
    160000   328.6651      -36344.272      1415.977      -34733.337     -0.068751523  
    170000   292.41752     -36392.09       1326.1637     -34892.47      -0.082009095  
    180000   313.22233     -36438.883      1271.0714     -34982.014     -0.048101618  
    190000   311.7905      -36460.125      1197.36       -35077.817     -0.060249141  
    200000   299.04104     -36498.455      1165.3402     -35155.729     -0.071380698  
    210000   311.56418     -36654.842      1165.2465     -35304.782     -0.061957158  
    220000   303.80549     -36685.657      1120.5474     -35384.898     -0.0402191    
    230000   280.35986     -36737.027      1092.5387     -35478.184     -0.06430339   
    240000   286.52422     -36784.654      1068.1685     -35546.525     -0.060258578  
    250000   302.05924     -36784.168      1030.6853     -35574.307     -0.05345609   
    260000   301.67765     -36821.017      1008.9182     -35633.149     -0.056518716  
    270000   294.26703     -37055.517      1024.7069     -35856.256     -0.052689948  
    280000   305.3503      -37085.284      1010.9205     -35893.235     -0.056297991  
    290000   293.31008     -37297.156      1060.83       -36062.34      -0.033726852  
    300000   291.51015     -37318.983      1011.1001     -36134.964     -0.02174785   
    310000   296.35048     -37351.696      972.41179     -36203.495     -0.053499465  
    320000   328.90073     -37345.661      939.75182     -36210.811     -0.046504216  
    330000   295.42795     -37397.834      922.93925     -36299.652     -0.035734752  
    340000   289.86249     -37654.545      950.23539     -36532.369     -0.036622677  
    350000   302.38849     -37715.777      934.50888     -36601.897     -0.022571389  
    360000   301.26093     -37754.621      921.52864     -36654.39      -0.038772049  
    370000   345.44055     -37823.796      909.22276     -36709.664     -0.025622893  
    380000   278.33277     -37875.408      900.79915     -36809.507     -0.04446578   
    390000   274.20659     -38081.774      913.57162     -37005.548     -0.01373211   
    400000   267.89481     -38093.293      917.9208      -37016.462      0.0049075372 
    410000   314.35279     -38327.073      933.05529     -37207.55      -0.01466465   
    420000   259.27982     -38334.571      926.26047     -37254.511     -0.024157293  
    430000   275.20983     -38323.529      919.24834     -37241.031      0.0098782783 
    440000   296.12533     -38377.607      936.88396     -37265.067     -0.02006002   
    450000   301.15748     -38316.702      918.91517     -37219.146     -0.007773802  
    460000   271.88046     -38339.771      931.98668     -37246.509      0.014207628  
    470000   261.2052      -38341.649      921.55569     -37265.152      0.0052098499 
    480000   268.58921     -38347.14       923.38413     -37264.434     -0.0041319725 
    490000   289.17747     -38355.323      924.4147      -37259.373      0.017829328  
    500000   292.45921     -38366.634      931.02216     -37262.131      0.013043969  
    510000   314.53588     -38339.067      930.23721     -37222.253      0.013021634  
    520000   309.22817     -38333.915      927.68959     -37222.797      0.012793803  
    530000   301.49888     -38324.094      922.28193     -37222.969     -0.013761935  
    540000   306.92402     -38327.682      917.04263     -37228.578     -0.0177446    
    550000   329.77659     -38350.478      927.26709     -37227.594      0.0088361598 
    560000   306.07715     -38352.127      932.06191     -37238.506     -0.0087247654 
    570000   288.53194     -38352.872      925.46041     -37256.26      -0.0049271995 
    580000   309.94173     -38344.309      933.01622     -37227.441     -0.013490882  
    590000   306.8642      -38355.047      931.80261     -37241.218     -0.015531368  
    600000   294.91036     -38374.338      940.00602     -37259.397      0.025511941  
    610000   296.64606     -38354.975      933.69986     -37245.31       0.01913001   
    620000   306.40256     -38372.323      927.01974     -37263.551      0.028861324  
    630000   315.95327     -38334.273      923.95005     -37222.906      0.0063979529 
    640000   301.78051     -38347.288      928.42444     -37239.853     -0.012645992  
    650000   297.94722     -38373.109      928.74822     -37267.624     -0.0030532244 
    660000   294.58577     -38341.157      928.09038     -37238.323      0.010555435  
    670000   312.68886     -38371.474      932.34656     -37253.646      0.023893122  
    680000   306.68359     -38334.584      922.57645     -37230.088      0.014018389  
    690000   305.58518     -38365.091      931.8425      -37251.981     -0.0051393309 
    700000   277.55969     -38322.554      915.55108     -37242.36      -0.00094598565
    710000   291.36126     -38341.325      929.75469     -37238.74      -0.0025846016 
    720000   323.28754     -38342.127      928.98        -37221.379      0.0083058409 
    730000   298.27325     -38348.036      927.43652     -37243.669     -0.0060995783 
    740000   292.10609     -38368.793      929.63602     -37265.885     -0.012162627  
    750000   322.49571     -38351.915      926.1716      -37234.445      0.0011531459 
    760000   284.03004     -38352.425      933.40884     -37250.535      0.007690277  
    770000   302.45933     -38332.783      920.42952     -37232.94      -0.015030548  
    780000   281.74629     -38353.693      926.65193     -37259.914     -0.020297946  
    790000   272.51359     -38332.503      922.11491     -37248.739     -0.0094079274 
    800000   288.08249     -38330.988      924.34448     -37235.758     -0.013944542  
    810000   288.97015     -38358.073      921.44357     -37265.218     -0.0087088299 
    820000   296.7166      -38348.285      927.21938     -37245.059      0.0063555111 
    830000   295.61056     -38346.659      929.89537     -37241.413      0.0079294878 
    840000   295.36796     -38348.549      927.47571     -37245.867      0.021099282  
    850000   305.09448     -38344.628      930.35398     -37233.298      0.005389411  
    860000   298.52792     -38339.744      928.6454      -37234.018     -0.0028779245 
    870000   316.10543     -38328.322      929.42487     -37211.389     -0.0026451001 
    880000   270.00117     -38349.9        925.45216     -37264.289     -0.010857347  
    890000   299.67286     -38338.506      923.0362      -37237.709      0.0021536063 
    900000   312.96068     -38344.67       923.95079     -37235.077      0.0021488873 
    910000   326.01328     -38358.484      930.23091     -37234.868     -0.020682848  
    920000   303.30656     -38338.129      926.37308     -37231.841      0.016501398  
    930000   311.42156     -38365.356      935.0211      -37245.605     -0.00087487149
    940000   301.97837     -38331.158      924.67662     -37227.354     -0.0059523023 
    950000   302.6753      -38350.183      924.62121     -37246.02       0.012867821  
    960000   329.97801     -38359.916      929.01517     -37235.164      0.0033590351 
    970000   309.4213      -38366.684      936.80754     -37246.334      0.034465295  
    980000   272.49667     -38357.993      930.45704     -37265.896     -0.014266587  
    990000   284.75325     -38364.607      932.83178     -37262.865      0.035929282  
   1000000   277.50902     -38333.727      924.69441     -37244.42       0.017150515  
Loop time of 392.324 on 1 procs for 1000000 steps with 200 atoms

Performance: 440.453 ns/day, 0.054 hours/ns, 2548.917 timesteps/s
95.0% CPU use with 1 MPI tasks x no OpenMP threads

MPI task timing breakdown:
Section |  min time  |  avg time  |  max time  |%varavg| %total
---------------------------------------------------------------
Pair    | 267.7      | 267.7      | 267.7      |   0.0 | 68.23
Bond    | 1.3311     | 1.3311     | 1.3311     |   0.0 |  0.34
Kspace  | 88.783     | 88.783     | 88.783     |   0.0 | 22.63
Neigh   | 1.2069     | 1.2069     | 1.2069     |   0.0 |  0.31
Comm    | 7.7402     | 7.7402     | 7.7402     |   0.0 |  1.97
Output  | 0.07902    | 0.07902    | 0.07902    |   0.0 |  0.02
Modify  | 23.596     | 23.596     | 23.596     |   0.0 |  6.01
Other   |            | 1.89       |            |       |  0.48

Nlocal:            200 ave         200 max         200 min
Histogram: 1 0 0 0 0 0 0 0 0 0
Nghost:           1688 ave        1688 max        1688 min
Histogram: 1 0 0 0 0 0 0 0 0 0
Neighs:          19900 ave       19900 max       19900 min
Histogram: 1 0 0 0 0 0 0 0 0 0

Total # of neighbors = 19900
Ave neighs/atom = 99.5
Ave special neighs/atom = 2.94
Neighbor list builds = 6806
Dangerous builds = 0
write_data PDMAEMA.data
System init for write_data ...
PPPM initialization ...
  using 12-bit tables for long-range coulomb (src/kspace.cpp:342)
  G vector (1/distance) = 0.0042895475
  grid = 6 6 6
  stencil order = 5
  estimated absolute RMS force accuracy = 0.00018841187
  estimated relative force accuracy = 5.6739676e-07
  using double precision FFTW3
  3d grid and FFT values/proc = 1331 216
Generated 1 of 1 mixed pair_coeff terms from arithmetic mixing rule
Total wall time: 0:06:32
