LAMMPS (23 Jun 2022)

units real
boundary p p p
atom_style full
region mybox block -500.000000 500.000000 -500.000000 500.000000 -500.000000 500.000000
create_box 2 mybox bond/types 1 angle/types 0 dihedral/types 0 extra/special/per/atom 20 extra/bond/per/atom 20 extra/angle/per/atom 20
Created orthogonal box = (-500 -500 -500) to (500 500 500)
  1 by 1 by 1 MPI processor grid
#variable string MAA type 1
#variable Na type 2
molecule pol PDMAEMA.mol
Read molecule template pol:
  1 molecules
  0 fragments
  200 atoms with max type 2
  99 bonds with max type 1
  0 angles with max type 0
  0 dihedrals with max type 0
  0 impropers with max type 0
mass 1 157.21
mass 2 35.453
dielectric 81.2
bond_style harmonic
bond_coeff 1 0.57 5
pair_style lj/cut/coul/long 4.568 500.0
pair_coeff 1 1 0.7 4.0 4.49
pair_coeff 2 2 0.1 4.3 4.8
kspace_style pppm 1e-6
create_atoms 0 single 0 0 0 mol pol 123
Created 200 atoms
  using lattice units in orthogonal box = (-500 -500 -500) to (500 500 500)
  create_atoms CPU = 0.002 seconds

velocity all create 300.0 4928459
pair_modify shift yes mix arithmetic
fix nvt all langevin 300 300 100.0 6138895 gjf vfull
fix nve all nve
dump xtc all xtc 10000 PDMAEMA.xtc
thermo      10000
timestep 2
run     50000000
PPPM initialization ...
  using 12-bit tables for long-range coulomb (src/kspace.cpp:342)
  G vector (1/distance) = 0.0045578333
  grid = 6 6 6
  stencil order = 5
  estimated absolute RMS force accuracy = 2.8540482e-06
  estimated relative force accuracy = 8.5948814e-09
  using double precision FFTW3
  3d grid and FFT values/proc = 1331 216
Generated 1 of 1 mixed pair_coeff terms from arithmetic mixing rule
Neighbor list info ...
  update every 1 steps, delay 10 steps, check yes
  max neighbors/atom: 2000, page size: 100000
  master list distance cutoff = 502
  ghost atom cutoff = 502
  binsize = 251, bins = 4 4 4
  1 neighbor lists, perpetual/occasional/extra = 1 0 0
  (1) pair lj/cut/coul/long, perpetual
      attributes: half, newton on
      pair build: half/bin/newton
      stencil: half/bin/3d
      bin: standard
Per MPI rank memory allocation (min/avg/max) = 16.43 | 16.43 | 16.43 Mbytes
   Step          Temp          E_pair         E_mol          TotEng         Press     
         0   302.88825     -167.71985      5.365682e-27   11.947763      0.0043797546 
     10000   294.63252     -163.98156      41.423226      52.212142     -0.0027513038 
     20000   303.50529     -160.81941      47.917056      67.13128      -0.004603073  
     30000   309.51006     -151.99956      56.603626      88.19962      -0.0054287845 
     40000   288.78156     -139.91441      43.451254      74.836638     -0.0051434952 
     50000   248.49997     -142.76164      52.963955      57.607826     -0.0063305688 
     60000   280.5007      -137.82101      47.228042      75.794773     -0.00494961   
     70000   304.00364     -124.06128      56.212042      112.48001     -0.0043193173 
     80000   276.94        -126.98347      60.606814      97.898943     -0.0069922593 
     90000   323.00655     -128.2502       47.650169      111.00138     -0.0043166654 
    100000   275.867       -125.44114      59.316698      97.514675     -0.006084512  
    110000   311.12717     -127.96109      55.545269      112.13897     -0.0033768341 
    120000   326.75073     -120.26542      48.492302      122.04927     -0.0043180676 
    130000   298.96287     -120.32214      56.633007      113.65002     -0.004678608  
    140000   303.31194     -121.2469       57.923601      116.59565     -0.0044553024 
    150000   294.29596     -125.84274      51.216961      99.945051     -0.0033800189 
    160000   353.03649     -119.83036      57.792367      147.37661     -0.0041575396 
    170000   312.20005     -120.3982       52.15684       116.94984     -0.0050756156 
    180000   305.46809     -116.0613       60.174488      125.31111     -0.004481901  
    190000   283.27393     -123.77511      41.379333      85.636997     -0.0030011166 
    200000   269.98556     -120.9328       52.525288      91.742845     -0.0067567432 
    210000   293.40635     -116.01983      63.087145      121.11045     -0.0062580444 
    220000   329.97911     -110.72015      56.002084      141.01934     -0.0038570566 
    230000   265.01323     -110.60596      46.973878      93.568788     -0.0046900328 
    240000   310.30246     -113.96216      54.135783      124.23921     -0.0047199682 
    250000   323.87477     -114.54837      54.297371      131.86542     -0.0041418234 
    260000   295.17242     -113.47563      56.244767      117.85987     -0.0057990582 
    270000   303.26447     -104.71476      46.904172      122.0802      -0.004873087  
    280000   296.8805      -101.56481      73.040087      147.57921     -0.0079429547 
    290000   320.77195     -107.83311      57.303679      139.74646     -0.0047557937 
    300000   293.98678     -108.71891      58.694688      124.3632      -0.0062236109 
    310000   305.24927     -107.35875      50.419767      124.12914     -0.0041098658 
    320000   296.27779     -110.78759      60.521993      125.48082     -0.0047684812 
    330000   304.95429     -106.09105      55.960303      130.76241     -0.0049347125 
    340000   281.05481     -105.71942      59.591011      120.58803     -0.0045354772 
    350000   286.50042     -101.87004      57.251705      125.32832     -0.0034748316 
    360000   327.47166     -104.8053       60.181831      149.62656     -0.0045130334 
    370000   329.02293     -110.6295       60.354494      144.89521     -0.0037082361 
    380000   291.07432     -108.01142      49.674327      114.32273     -0.0042724501 
    390000   298.75004     -107.84244      55.63262       125.00309     -0.0039071279 
    400000   298.27203     -107.56917      52.34806       121.70825     -0.0031120219 
    410000   286.7915      -104.17407      51.456906      117.40216     -0.0037504965 
    420000   286.14974     -106.05743      44.606908      108.28812     -0.0040842698 
    430000   296.65383     -98.897711      61.539653      138.61142     -0.0045094911 
    440000   300.12479     -104.06468      50.301609      124.26531     -0.0029929331 
    450000   327.09364     -104.29932      46.192071      135.91855     -0.0026344405 
    460000   288.59234     -105.8368       51.470774      116.82152     -0.0042232891 
    470000   296.91967     -99.176185      53.958286      130.90926     -0.0042695455 
    480000   293.30386     -100.60934      51.289751      124.66274     -0.004982474  
    490000   305.48631     -95.229274      53.004494      138.98395     -0.0040355987 
    500000   269.44996     -95.901381      61.025975      124.95724     -0.0044565306 
    510000   286.12741     -91.818787      42.059288      119.9659      -0.0038476592 
    520000   304.35966     -89.322981      55.801058      147.0185      -0.0038108974 
    530000   343.26011     -90.072942      49.423332      162.96583     -0.001670296  
    540000   322.26045     -84.620284      49.106641      155.6452      -0.0011541698 
    550000   304.3577      -91.97382       47.758894      136.32434     -0.0027918734 
    560000   311.35392     -89.014509      56.370219      152.045       -0.0039382467 
    570000   296.38635     -95.073001      52.983834      133.72164     -0.0024407127 
    580000   296.41647     -101.9941       52.145685      125.98026     -0.0036643506 
    590000   294.39331     -97.550424      43.199339      120.27749     -0.0024654332 
    600000   268.07215     -97.55773       45.592608      107.05024     -0.0035704152 
    610000   299.44252     -92.381707      65.834814      151.07678     -0.0056483569 
    620000   286.88474     -91.178023      45.531196      124.52781     -0.0032002361 
    630000   317.01884     -93.610493      58.670636      153.10976     -0.0038582009 
    640000   310.01937     -98.888127      48.011873      133.02141     -0.0038438031 
    650000   309.64658     -91.350855      48.275773      140.60145     -0.0030633832 
    660000   284.96212     -95.320167      52.869354      126.58336     -0.0036906903 
    670000   289.89961     -95.034153      50.572729      127.50158     -0.0039252373 
    680000   330.53131     -90.939518      44.494625      149.62006     -0.0016161926 
    690000   300.04753     -98.388122      55.772657      135.36709     -0.0043668151 
    700000   327.77885     -102.15706      52.777954      145.05315     -0.0043682074 
    710000   281.93164     -98.150554      53.189871      122.27587     -0.0045993928 
    720000   325.14128     -95.683235      40.999608      138.18407     -0.0024062166 
    730000   320.17475     -96.379354      55.815824      149.35811     -0.0045040992 
    740000   286.56051     -96.685092      48.637597      121.93481     -0.003946902  
    750000   306.14029     -100.41328      43.262472      124.44586     -0.0027738062 
    760000   315.18303     -104.57227      49.539163      131.92755     -0.001195206  
    770000   300.60422     -100.81915      58.274993      135.76861     -0.0040989126 
    780000   284.26954     -103.19063      60.07697       125.50969     -0.004895214  
    790000   308.80848     -96.869445      51.786069      138.09601     -0.0044632029 
    800000   288.73822     -97.962505      58.864115      132.17569     -0.0050594609 
    810000   290.8346      -93.120578      56.689213      136.08625     -0.0039673218 
    820000   303.92724     -95.589867      54.223328      138.91738     -0.0031810861 
    830000   283.29738     -94.173111      55.061922      128.93549     -0.0052075997 
    840000   300.15721     -100.75145      50.644743      127.94091     -0.0030265511 
    850000   315.77933     -96.266487      42.202053      133.24993     -0.0027285986 
    860000   312.7681      -100.37829      47.314127      132.46399     -0.0029579134 
    870000   314.20564     -96.235919      55.792226      145.93718     -0.0050143298 
    880000   318.56448     -91.172148      54.272831      152.06714     -0.0042554171 
    890000   324.26161     -96.645923      50.807755      146.50773     -0.0022792586 
    900000   275.67234     -98.811701      58.589341      123.30129     -0.0058920584 
    910000   288.12715     -93.225548      57.682076      135.36813     -0.0049266404 
    920000   318.4926      -92.663404      40.186659      136.44708     -0.0011328395 
    930000   273.3842      -89.338976      54.602527      127.42992     -0.00387033   
    940000   318.27277     -91.431824      57.751364      155.11296     -0.0045756256 
    950000   324.19332     -91.034884      42.688253      143.95875     -0.0016291945 
    960000   314.12912     -92.689892      52.137721      145.78332     -0.0035231686 
    970000   284.897       -90.316718      46.618211      125.29704     -0.003588004  
    980000   268.81135     -93.994808      42.018296      107.47733     -0.0023595475 
    990000   284.05516     -97.497024      50.132793      121.13195     -0.0021142856 
   1000000   301.90656     -91.51177       51.344834      138.91836     -0.0031089254 
   1010000   308.41292     -84.693077      54.999386      153.25106     -0.0033880322 
   1020000   299.8861      -93.890572      49.431629      133.42786     -0.0036132373 
   1030000   291.0261      -94.001378      56.399615      135.02945     -0.0052549181 
   1040000   320.77296     -88.984997      51.264334      152.55583     -0.0034778486 
   1050000   281.19295     -91.544003      56.996112      132.25048     -0.0057715127 
   1060000   308.7456      -90.714233      57.804563      150.23242     -0.0043818513 
   1070000   353.41203     -89.882116      56.442721      176.19798     -0.001862604  
   1080000   334.38485     -90.932955      47.667127      155.08498     -0.0028133976 
   1090000   270.21473     -91.814587      45.499191      113.9709      -0.0037207829 
   1100000   301.59449     -86.608902      57.101057      149.39234     -0.0046241932 
   1110000   281.43172     -82.236726      49.250144      133.95343     -0.0042434217 
   1120000   306.86549     -89.760469      50.126485      142.39286     -0.0032413624 
   1130000   310.52024     -92.694284      55.932371      147.43285     -0.0043183488 
   1140000   300.34412     -84.086744      51.560181      145.63192     -0.0038806267 
   1150000   333.35208     -88.102957      48.920262      158.55549     -0.0016509982 
   1160000   320.02517     -79.837592      44.849671      154.84499     -0.0024110724 
   1170000   308.21013     -86.592768      54.920674      151.15236     -0.0050980152 
   1180000   288.39848     -82.075426      46.676863      135.67399     -0.0015262042 
   1190000   307.65118     -82.950881      51.627385      151.1694      -0.0036760733 
   1200000   329.93271     -82.561075      53.65247       166.80128     -0.001544996  
   1210000   293.39806     -87.587192      59.566256      146.01728     -0.0040210558 
   1220000   294.09492     -83.335123      47.830539      138.94699     -0.0021912145 
   1230000   296.07754     -89.038964      53.908921      140.49759     -0.0033641798 
   1240000   308.40005     -91.664315      56.215267      147.48806     -0.0047384044 
   1250000   280.25705     -88.318599      51.329193      129.25381     -0.0042544594 
   1260000   297.28017     -86.283943      57.055169      147.11223     -0.003862736  
   1270000   304.42529     -87.591438      42.128607      135.11653     -0.001733835  
   1280000   297.80756     -77.25063       53.620884      153.0241      -0.0035934148 
   1290000   270.60819     -82.139095      51.410614      129.79121     -0.0023946137 
   1300000   286.8638      -79.92601       45.308483      135.54469     -0.0032473469 
   1310000   322.80767     -79.578333      59.360381      171.26549     -0.0050171223 
   1320000   294.56292     -78.592728      47.438618      143.57508     -0.0040744452 
   1330000   310.26098     -74.112502      50.221518      160.15        -0.0045274798 
   1340000   287.68137     -79.617062      57.901927      148.93204     -0.0038144521 
   1350000   277.55685     -80.074514      46.598789      131.16578     -0.0036752856 
   1360000   315.73248     -80.018531      52.772394      160.04043     -0.0030856044 
   1370000   291.96394     -86.199467      35.691636      122.67969     -0.0014306538 
   1380000   309.81858     -85.05085       59.751246      158.47896     -0.0048139325 
   1390000   323.95111     -82.75661       46.546217      155.95132     -0.0023356266 
   1400000   295.97268     -83.852283      50.794681      142.50783     -0.00374474   
   1410000   292.1825      -79.887368      56.702941      150.13274     -0.0031614987 
   1420000   346.19993     -78.047866      61.986298      189.29772     -0.0032572537 
   1430000   335.7575      -81.301509      56.362372      174.2259      -0.0033259031 
   1440000   327.375       -80.392203      60.831834      174.63232     -0.0047519539 
   1450000   294.56019     -81.060437      50.118436      143.78556     -0.0027836071 
   1460000   305.50279     -81.893222      57.282607      156.6079      -0.0042862907 
   1470000   300.89506     -72.828992      46.1309        151.7872      -0.0024778371 
   1480000   316.15021     -73.312739      57.066306      171.28793     -0.0040866812 
   1490000   321.99075     -79.945469      55.369589      166.42298     -0.0029461929 
   1500000   310.12686     -83.227423      53.449484      154.18348     -0.004088777  
   1510000   320.56099     -78.582673      59.079032      170.64711     -0.004028173  
   1520000   339.99286     -81.149758      44.815335      165.34295     -0.0023910803 
   1530000   318.29122     -80.115769      61.132066      169.82066     -0.0043087944 
   1540000   338.45955     -82.212659      48.947835      167.50302     -0.0024551288 
   1550000   288.78916     -74.810075      49.398582      145.8928      -0.0033113084 
   1560000   288.96747     -81.90887       41.700078      131.20128     -0.002290553  
   1570000   280.40741     -78.438678      47.63271       135.52644     -0.0041488587 
   1580000   298.61439     -77.041717      61.517643      161.60837     -0.0040166002 
   1590000   304.13378     -71.522907      52.478671      161.36221     -0.0040282345 
   1600000   283.64132     -69.625617      50.955041      149.58012     -0.0038947518 
   1610000   313.51536     -70.741381      49.74816       164.9782      -0.0029392449 
   1620000   297.27876     -71.97883       50.515148      154.87649     -0.0033714823 
   1630000   324.39852     -73.070199      46.522826      165.87973     -0.0017523182 
   1640000   275.48457     -68.230152      56.542102      151.72422     -0.0039659733 
   1650000   293.532       -69.414308      46.760976      151.46433     -0.0016830113 
   1660000   287.8146      -71.275607      47.530116      146.98072     -0.0022379122 
   1670000   285.18079     -76.993384      43.185945      135.35644     -0.002738654  
   1680000   326.94898     -77.057149      49.06032       165.94316     -0.002761597  
   1690000   305.35656     -71.997703      41.833972      150.96804     -0.0022971519 
   1700000   278.78364     -80.269311      45.180493      130.2804      -0.0027353836 
   1710000   321.84907     -84.416159      43.585334      150.08399     -0.00067494364
   1720000   259.16925     -78.00759       46.546483      122.27322     -0.0035180382 
   1730000   310.46436     -74.018346      42.693831      152.83711     -0.00048961742
   1740000   327.9231      -76.526643      55.881023      173.8722      -0.0023000088 
   1750000   300.65193     -78.31121       49.640971      149.67084     -0.0011586236 
   1760000   313.59887     -81.249724      51.733521      156.50475     -0.0025605137 
   1770000   282.31503     -76.798227      56.75029       147.41603     -0.0035332677 
   1780000   304.53129     -79.365936      51.284658      152.56096     -0.0020108957 
   1790000   282.74859     -85.615142      44.977879      127.08388     -0.0024464646 
   1800000   283.69254     -88.959417      33.936007      113.25767     -0.00090680767
   1810000   315.01117     -79.123893      43.315839      151.05065     -0.0022835663 
   1820000   301.26522     -81.181998      44.306182      141.82905     -0.0021849338 
   1830000   310.84399     -86.226549      43.832482      141.99274      8.2244698e-05
   1840000   302.40853     -84.411018      41.880431      136.85247     -0.0011810756 
   1850000   295.28584     -88.574424      49.608471      136.19206     -0.0026051774 
   1860000   300.4811      -90.769431      54.783942      142.25425     -0.0036928851 
   1870000   311.01611     -83.522259      42.716728      143.68338     -0.0016416569 
   1880000   310.72945     -92.287923      45.465638      137.49658     -0.0020602962 
   1890000   311.17778     -88.396638      47.081763      143.26993     -0.0020111195 
   1900000   314.69803     -88.508386      46.823566      144.98814     -0.0020749126 
   1910000   340.80201     -91.498663      49.672428      160.33111     -0.00046604502
   1920000   337.1101      -91.688519      51.988237      160.26709     -0.0020001404 
   1930000   291.55027     -88.004145      50.084877      135.02287     -0.0038917269 
   1940000   291.88629     -84.784192      52.160598      140.51787     -0.0036470119 
   1950000   302.39395     -81.659373      51.62032       149.33535     -0.0020849415 
   1960000   327.00799     -82.774022      57.282781      168.48375     -0.0033913842 
   1970000   278.13075     -84.377155      38.364067      118.96885     -0.0012171108 
   1980000   302.53637     -85.410576      47.701153      141.74946     -0.0011313724 
   1990000   278.21906     -87.088966      36.409891      114.35524     -0.00087242623
   2000000   300.8556      -87.193085      48.504357      139.77316     -0.0033910727 
   2010000   294.80895     -85.790415      38.333231      127.41794     -0.0018654563 
   2020000   287.76156     -89.154854      43.259275      124.79917     -0.001768382  
   2030000   290.29917     -88.337416      46.649722      130.51231     -0.0022871086 
   2040000   271.0617      -83.313318      48.573886      126.04927     -0.003606926  
   2050000   346.84288     -79.086715      52.558067      179.21203     -0.0016773504 
   2060000   307.97635     -81.332091      44.518024      145.87171     -0.0027069915 
   2070000   328.40052     -78.631392      55.201962      171.37158     -0.0021474195 
   2080000   312.66734     -82.702419      40.109791      142.87576     -0.0020008037 
   2090000   307.28777     -79.219026      57.725488      160.78379     -0.0015110853 
   2100000   314.29853     -77.565654      51.649919      160.52025     -0.0029475287 
   2110000   282.24043     -76.361109      49.171087      140.22969     -0.0036480211 
   2120000   326.77781     -73.666077      48.227037      168.39941     -0.0022713018 
   2130000   303.55541     -74.027847      52.904699      158.94021     -0.0033568918 
   2140000   297.284       -78.680066      45.035312      142.69853     -0.0034105661 
   2150000   316.00221     -73.75648       33.59672       147.28681      0.00077526396
   2160000   283.56926     -74.169258      44.337819      138.37652     -0.0014340269 
   2170000   284.36532     -70.928252      47.138348      144.89026     -0.0031274215 
   2180000   285.88836     -68.396799      47.258388      148.44519     -0.00091330542
   2190000   270.04322     -67.128147      43.835146      136.89156     -0.0041295668 
   2200000   278.90212     -63.831277      51.508588      153.1168      -0.0030562082 
   2210000   291.51434     -61.302023      47.286482      158.90528     -0.001692471  
   2220000   307.28789     -55.833401      42.57237       169.01637     -0.0022098557 
   2230000   280.17382     -61.113457      45.347482      150.42787     -0.0027804398 
   2240000   297.62397     -56.134721      44.592138      165.00236     -0.0013421532 
   2250000   291.17059     -64.629247      45.527401      153.61508     -0.0018588965 
   2260000   268.42208     -59.840351      47.370225      146.75281     -0.0022951479 
   2270000   334.12525     -60.0101        47.412157      185.59887      5.0115569e-05
   2280000   315.04718     -61.879792      48.734835      173.73511     -0.0026638432 
   2290000   313.22689     -58.568717      52.061531      179.29311     -0.0021961786 
   2300000   303.67354     -58.109151      45.086614      167.1109      -0.0010832457 
   2310000   315.15526     -58.057241      41.749612      170.63655     -9.8002951e-05
   2320000   284.1624      -52.740095      52.11009       167.92979     -0.0022619866 
   2330000   302.15056     -62.195118      48.679773      165.71468     -0.0010310796 
   2340000   289.57783     -61.408222      48.683951      159.04785     -0.0028377441 
   2350000   288.47601     -57.948511      46.405105      159.57514     -0.0021995425 
   2360000   281.55057     -60.088276      42.823197      149.74542      0.00015938099
   2370000   298.99029     -61.102324      47.073869      163.32697     -0.00021620775
   2380000   289.2504      -62.764259      46.069218      154.88286     -0.0021527131 
   2390000   306.99993     -63.278138      49.270117      168.09857     -0.0013831606 
   2400000   262.51981     -61.879272      48.846285      142.68883     -0.0037553979 
   2410000   345.16466     -59.828045      42.88513       187.80227     -5.6087802e-05
   2420000   300.93745     -58.691788      42.363063      162.18171     -0.0014699136 
   2430000   313.92412     -57.35001       53.617664      182.48154     -0.0019051315 
   2440000   325.74982     -59.930713      39.687607      172.98556      7.5166386e-05
   2450000   328.09714     -67.24252       54.579635      181.95817     -0.0026143465 
   2460000   308.63344     -65.247937      41.273579      159.10119     -0.00056264926
   2470000   299.55766     -64.003813      46.135682      159.82384     -0.0011819292 
   2480000   333.15543     -58.030637      47.450108      187.04101     -0.0010543317 
   2490000   300.79384     -60.384019      44.6702        162.71143     -0.0011037825 
   2500000   294.08775     -62.531786      37.434682      149.35022     -0.001041381  
   2510000   275.42778     -54.067234      49.286728      158.59807     -0.0043265011 
   2520000   314.44109     -63.571142      50.378452      173.32785     -0.0018285985 
   2530000   311.48591     -69.402621      40.281839      155.6468      -0.0012504899 
   2540000   302.59751     -65.0929        57.911217      172.31347     -0.0030662436 
   2550000   288.16556     -64.10903       37.602416      144.42778     -0.0017254564 
   2560000   277.59733     -61.239191      43.494481      146.92081     -0.0019858745 
   2570000   310.89666     -60.370612      43.564996      167.61244     -0.00094343344
   2580000   290.27627     -51.578029      50.501714      171.11011     -0.0020931973 
   2590000   303.48314     -57.478769      42.332126      164.87385     -0.00089512715
   2600000   299.85397     -64.078969      42.739459      156.52823     -0.001395577  
   2610000   300.82486     -67.378983      36.497674      147.56234     -0.0010950261 
   2620000   311.62879     -66.223457      57.727865      176.35675     -0.0027898458 
   2630000   287.71596     -66.320422      45.301763      149.64904     -0.00069984365
   2640000   323.06315     -67.259855      49.158778      173.53391     -0.0016249933 
   2650000   322.02561     -61.807287      41.989311      171.20156      0.0011633866 
   2660000   280.18857     -66.427564      39.691178      139.46621     -0.0009693839 
   2670000   299.35191     -68.683137      43.517276      152.40406     -0.0016835627 
   2680000   261.30772     -63.199462      47.407455      139.21082     -0.001264802  
   2690000   290.20412     -67.111678      43.971697      149.00365     -0.0019141146 
   2700000   304.90049     -65.064312      37.740065      153.53699     -0.00032024252
   2710000   276.72992     -60.543788      42.26798       145.87518     -0.0015719107 
   2720000   289.28544     -64.378762      37.267685      144.48761     -0.00093489441
   2730000   301.39875     -55.097009      49.266128      172.95319     -0.0030730268 
   2740000   270.83034     -54.214628      43.577396      150.01423      4.2934575e-05
   2750000   287.99035     -57.460713      40.487606      153.85736     -0.0018342172 
   2760000   314.78106     -63.350891      39.769317      163.14063     -0.00069614736
   2770000   289.29106     -65.201583      47.719004      154.11944     -0.0017355692 
   2780000   320.40005     -65.13802       50.507041      175.42431     -0.0022684109 
   2790000   304.76126     -62.367173      44.15391       162.56539     -0.00062625386
   2800000   302.77392     -57.096773      40.390499      162.89352      0.00077949196
   2810000   305.45702     -57.87165       35.086271      158.40598     -4.1386108e-05
   2820000   293.22575     -58.846474      43.224998      158.31452     -0.00019858569
   2830000   291.21117     -59.551766      37.248009      150.43723     -0.00040748215
   2840000   282.03579     -63.22449       40.721589      144.79542     -0.0024490048 
   2850000   270.87599     -60.50381       46.061374      146.23611     -0.0024844243 
   2860000   347.49123     -62.529109      39.300949      182.89711      0.00017293981
   2870000   274.92194     -62.005142      48.908204      149.98158     -0.0023835929 
   2880000   298.33144     -64.067846      41.128227      154.02498     -0.0018109986 
   2890000   298.49575     -60.757113      42.722124      159.02708     -0.00021304   
   2900000   295.87443     -57.577831      42.690826      160.62014     -0.001295273  
   2910000   273.46764     -53.249829      42.562883      151.52892     -0.0033402441 
   2920000   317.43078     -57.046305      48.728951      179.97662     -0.00062162836
   2930000   275.76173     -56.965543      39.970276      146.58141     -0.0011546369 
   2940000   281.78547     -56.195684      51.253469      162.20763     -0.0036189614 
   2950000   306.25149     -57.982836      45.225685      168.90548     -0.00076837728
   2960000   290.41038     -53.634675      50.803452      169.43476     -0.0026958866 
   2970000   316.49837     -59.293811      43.476324      171.92339     -0.00052205211
   2980000   279.27558     -60.286096      45.767948      151.14287     -0.0021843745 
   2990000   284.58813     -64.163691      48.403262      153.0519      -0.0024774731 
   3000000   297.47717     -62.804745      45.207702      158.86082     -0.0010045935 
   3010000   304.047       -61.168977      50.281874      169.46786     -0.00075955819
   3020000   301.65633     -49.883247      47.220115      176.27373     -0.0014069758 
   3030000   294.32267     -53.78731       50.544473      171.34384     -0.0018571532 
   3040000   314.7131      -59.246103      48.287903      175.72369     -0.0018378808 
   3050000   310.10133     -66.406801      49.565569      167.10505     -0.0027049936 
   3060000   283.06756     -56.001749      53.077259      164.98586     -0.0034920514 
   3070000   282.47222     -55.121252      48.556232      160.99219     -0.0016340534 
   3080000   308.08798     -58.834632      49.417651      173.33502     -0.0020036931 
   3090000   304.65472     -64.591008      45.542096      161.66654     -0.00044695132
   3100000   286.81426     -59.252095      49.41636       160.29709     -0.0037735747 
   3110000   308.67314     -62.11074       56.267792      177.25615     -0.0027052359 
   3120000   280.6095      -69.52358       45.112178      142.04088     -0.0022179523 
   3130000   322.52634     -65.410983      50.411821      176.3174      -0.0015367933 
   3140000   290.36705     -68.505443      42.035662      145.77049     -0.0019235517 
   3150000   330.62486     -52.876585      45.331811      188.57568     -0.0024034249 
   3160000   279.12694     -58.395218      44.200839      151.37847     -0.00055667034
   3170000   293.43535     -60.919852      46.083296      159.22378     -0.0022344632 
   3180000   322.45871     -53.477834      45.14293       182.94154     -0.00021188588
   3190000   315.93817     -58.487938      38.51231       167.43295     -0.0008504812 
   3200000   310.36709     -48.684732      50.517447      185.93664     -0.001049141  
   3210000   284.75021     -52.183095      48.164989      164.89037     -0.0022544995 
   3220000   297.77282     -50.117422      52.328081      178.8439      -0.0029271293 
   3230000   293.74313     -51.661207      44.375326      166.95702     -0.0022831904 
   3240000   318.61571     -59.772871      48.249198      177.47318     -0.00086533012
   3250000   280.46785     -65.274387      59.666423      160.76029     -0.0037052863 
   3260000   296.74835     -60.025787      50.605935      166.60569     -0.003120908  
   3270000   316.9963      -67.820733      46.931425      167.14694     -0.0019790411 
   3280000   269.33017     -68.549115      42.735829      133.94831     -0.0024041857 
   3290000   311.86367     -63.728642      42.221032      163.48406     -0.0012900283 
   3300000   280.55897     -65.910633      46.113233      146.62491     -0.0023197031 
   3310000   313.39564     -66.789783      45.338614      164.44923     -0.00071084864
   3320000   289.66716     -75.474181      45.608705      141.95964     -0.0021407445 
   3330000   308.44015     -69.775592      42.205148      155.39045     -0.0011171936 
   3340000   308.12898     -75.637246      37.24311       144.38218     -0.00082552735
   3350000   309.85887     -72.490169      44.423051      155.73534     -0.0015832962 
   3360000   311.2444      -68.054081      38.886585      155.45683     -0.00084944433
   3370000   284.35783     -65.12058       46.983437      150.53858     -0.0026477729 
   3380000   319.15652     -69.140594      43.47212       163.64917     -0.0010201372 
   3390000   290.31764     -67.413073      34.771595      139.56949     -0.0011816288 
   3400000   317.44384     -72.995007      43.01471       158.32142     -0.0011059207 
   3410000   315.212       -71.836256      53.392765      168.53434     -0.0025943412 
   3420000   301.7575      -67.587408      45.286902      156.69637     -0.0018427975 
   3430000   279.21792     -72.514723      40.421423      133.53352     -0.0011628556 
   3440000   309.42799     -67.980705      39.845978      155.41214     -0.00059530424
   3450000   312.22594     -70.915438      48.153706      162.44483     -0.00224346   
   3460000   304.87732     -65.893543      59.892327      174.84628     -0.0034787615 
   3470000   334.42535     -68.151377      41.25472       171.47818     -0.00051258249
   3480000   333.65459     -65.477191      39.501107      171.94154      0.00060675697
   3490000   278.99606     -67.023454      39.797857      138.26962     -0.001074842  
   3500000   291.46684     -69.596889      32.994712      136.29047      0.00027767661
   3510000   328.84106     -68.068357      44.282395      171.27637     -0.00085512246
   3520000   270.05664     -65.804701      44.47016       138.85798     -0.0030775744 
   3530000   309.61251     -64.416772      38.583919      157.82347     -0.00082600177
   3540000   300.87255     -64.676995      43.113868      156.90881     -0.00094518917
   3550000   302.37116     -62.806017      46.736848      163.29172     -0.0019922832 
   3560000   299.64387     -67.009718      48.866359      159.59975     -0.0024812448 
   3570000   295.60139     -61.674032      38.219461      151.89062     -6.8621577e-05
   3580000   308.08468     -61.986913      45.265626      166.02875     -0.0012636617 
   3590000   279.24713     -63.671296      45.115598      147.08845     -0.0022983007 
   3600000   295.07696     -51.885156      54.172644      177.32159     -0.002064105  
   3610000   303.19672     -53.013532      59.354413      186.19147     -0.0033367771 
   3620000   298.19662     -56.177056      52.541694      173.24927     -0.0023402066 
   3630000   303.81659     -58.851049      40.94181       162.30905     -0.00098475497
   3640000   292.19365     -61.132933      49.76956       161.9604      -0.0031138434 
   3650000   303.24072     -60.742753      46.155393      165.28933     -0.0013475955 
   3660000   299.0695      -57.992216      58.359103      177.76929     -0.0028275044 
   3670000   291.96959     -57.907966      40.208434      155.49134     -0.001893435  
   3680000   298.71815     -60.986685      37.598001      153.80531     -0.0007296229 
   3690000   326.42584     -64.908287      38.681662      167.40304      0.00098187454
   3700000   315.47603     -62.328923      33.540855      158.34638     -0.00021740537
   3710000   334.56831     -61.216391      39.682436      176.92568      0.00049721226
   3720000   338.66838     -67.132239      41.522702      175.28218     -0.00069966252
   3730000   317.08744     -63.293851      46.716311      171.51277     -0.00094170124
   3740000   320.0819      -62.881969      51.367569      178.35216     -0.0011791956 
   3750000   298.76629     -64.929568      48.652578      160.94556     -0.0012182314 
   3760000   277.00299     -65.55914       43.503293      142.25712     -0.00061363206
   3770000   317.38045     -63.662087      40.316         164.91803      0.00054231949
   3780000   288.25807     -67.98234       43.534963      146.54189     -0.0017079184 
   3790000   291.9738      -71.430512      43.695645      145.4585      -0.0014167503 
   3800000   287.22521     -71.902337      55.806094      154.28035     -0.0019182522 
   3810000   311.55747     -71.718522      35.881784      148.97329     -0.00098484263
   3820000   287.3136      -71.017827      40.817515      140.22871     -0.0013212837 
   3830000   297.55159     -73.348399      53.793363      156.94697      0.00013056389
   3840000   311.3521      -72.793348      50.654213      162.54908     -0.0018338864 
   3850000   298.9555      -64.475831      41.620008      154.47896     -0.00018154463
   3860000   319.4725      -61.75304       44.215351      171.96739     -0.00099207124
   3870000   310.72336     -55.868059      37.102238      165.54943      0.00040920647
   3880000   303.5777      -58.113971      40.959088      162.9217      -0.00050964471
   3890000   297.09135     -63.5813        48.203008      160.85071     -0.00095041468
   3900000   299.34026     -64.022139      38.136154      151.67703     -0.0016447341 
   3910000   312.57891     -66.961588      53.083606      171.53795     -0.001655519  
   3920000   298.47777     -70.856128      38.13936       144.33463     -0.0013475276 
   3930000   306.47145     -62.984535      45.168003      163.97657     -0.0025618166 
   3940000   300.43645     -67.40473       50.3681        161.17663     -0.0015926949 
   3950000   308.13367     -65.943144      45.268328      162.10428     -0.0020790491 
   3960000   288.90478     -62.297799      44.694892      153.76997     -0.00056038312
   3970000   304.8702      -65.669693      43.233202      158.40678     -0.001522753  
   3980000   333.50398     -64.490829      46.754281      180.09174     -0.0013537878 
   3990000   306.68979     -69.647739      47.93035       160.20523     -0.00093970984
   4000000   288.28197     -70.038975      38.967018      139.93149     -0.0017795851 
   4010000   289.17363     -63.841779      49.970191      157.66077     -0.0032626232 
   4020000   275.79818     -59.585529      54.125551      158.13832     -0.0030883066 
   4030000   270.1759      -65.674475      49.142736      143.73153     -0.00083706914
   4040000   274.27124     -58.33597       54.398497      158.75507     -0.0027545156 
   4050000   290.2602      -59.017538      42.225685      155.38504     -0.0019240254 
   4060000   299.93759     -60.655669      42.186545      159.44821     -0.00064436426
   4070000   271.42906     -55.443471      45.902493      151.46564     -0.0014195038 
   4080000   308.85267     -62.409331      47.204922      168.00119     -0.0013497078 
   4090000   290.49011     -57.936276      44.980749      159.35774     -0.0017603684 
   4100000   305.68112     -59.736388      41.004219      162.59212     -0.0017797008 
   4110000   329.02774     -54.323945      39.051737      179.90086     -3.6337021e-05
   4120000   288.3023      -57.111483      43.66664       157.57066      0.00060445342
   4130000   306.50479     -59.614393      45.335383      167.53387     -0.0018395872 
   4140000   291.76575     -55.532414      53.94482       171.48236     -0.0027110363 
   4150000   280.0729      -49.6702        51.371144      167.83493     -0.0029492585 
   4160000   316.91666     -49.068957      40.060983      178.98103     -0.00069082328
   4170000   326.06851     -45.655671      39.97273       187.73477      0.00086925031
   4180000   284.33097     -51.667165      40.591467      157.58409     -0.00019962399
   4190000   284.9153      -58.916025      44.824145      154.91452     -0.0026081321 
   4200000   295.61173     -61.507737      44.323485      158.16707     -0.0016392143 
   4210000   317.36386     -60.800647      52.731746      180.18537     -0.0011558787 
   4220000   280.34005     -59.562935      44.281077      151.01059     -0.0015468737 
   4230000   264.11173     -64.569503      40.418485      132.51509     -0.00087708505
   4240000   308.89275     -73.51927       28.73927       138.44937      0.00049594914
   4250000   303.54633     -63.711002      47.136333      163.48331     -0.0011411854 
   4260000   289.51751     -65.131623      46.369395      152.97412     -0.0015423199 
   4270000   303.73174     -64.98946       45.609022      160.78752     -0.0016671063 
   4280000   299.96841     -68.874572      43.286058      152.34711      0.00012329751
   4290000   277.90928     -72.84575       42.161013      134.16583     -0.0035657891 
   4300000   331.42081     -56.895145      43.129588      182.82704     -0.00080854551
   4310000   275.89338     -62.740851      52.634298      153.54822     -0.0038421492 
   4320000   280.4176      -59.347716      43.062967      150.0537      -0.00084484666
   4330000   274.40076     -60.542859      37.582863      139.80938     -0.00030500947
   4340000   307.64474     -66.227973      45.059919      161.32102     -0.0015910108 
   4350000   280.05957     -64.467248      32.712712      134.37154      0.00038647461
   4360000   316.02163     -67.900303      40.51585       160.07364      0.00051108189
   4370000   329.47411     -69.261759      46.509628      172.68572     -0.0010182445 
   4380000   305.76756     -75.371692      45.933785      151.93766     -0.0017578186 
   4390000   298.69348     -70.054859      40.091263      147.21576     -0.00092618734
   4400000   301.03349     -69.625519      44.162569      153.10445     -0.00068535149
   4410000   310.11146     -70.578429      46.132135      159.50599     -0.0014864749 
   4420000   296.00965     -69.620784      37.385223      143.3518       0.00084908221
   4430000   306.99841     -72.425535      30.007208      139.68736      0.00075541004
   4440000   305.81833     -58.636809      38.047457      160.81633     -0.00052778502
   4450000   298.86133     -65.171272      39.087384      151.19503      0.00097734174
   4460000   308.37618     -63.41353       32.496705      152.00613     -9.0879424e-05
   4470000   300.2006      -60.471946      41.120875      158.72228      0.00011304326
   4480000   319.69063     -63.078139      43.792549      170.34888     -0.0012470161 
   4490000   285.04356     -58.596637      31.818646      142.30449      0.00095076659
   4500000   318.73714     -69.478185      39.052362      158.64306      5.2786063e-05
   4510000   292.34039     -58.81842       39.087638      153.68004     -0.00013852843
   4520000   315.08009     -50.024214      49.348175      186.22355     -0.0003702398 
   4530000   292.56364     -52.782238      36.5135        157.27451     -0.00068914381
   4540000   288.30696     -60.271326      43.938284      154.68523     -0.002229882  
   4550000   291.58118     -61.671895      34.014148      145.30273      0.00050709573
   4560000   294.03739     -65.335448      52.621501      161.70351     -0.0035009536 
   4570000   309.3877      -70.12275       40.30213       153.70235     -0.0011838951 
   4580000   326.41308     -61.123548      46.983686      179.48224     -0.0013609209 
   4590000   302.77328     -62.169661      41.827146      159.25691     -0.0011418033 
   4600000   290.48398     -71.440102      54.026101      154.89564     -0.0034949671 
   4610000   295.21883     -66.593492      41.510902      150.03567     -0.00023412504
   4620000   321.4359      -68.442564      40.957497      163.18467     -0.00053808148
   4630000   318.80935     -61.447064      39.340469      167.00512      0.00019117285
   4640000   264.2186      -60.747514      46.033638      142.01563     -0.0011057054 
   4650000   285.19255     -63.387006      37.792264      143.57612      0.00015715547
   4660000   337.2187      -55.967671      41.363375      185.4275      -0.00018454177
   4670000   287.28498     -59.889753      40.040652      150.56295     -0.00011894458
   4680000   302.82325     -56.529772      37.74512       160.8444       0.0021493748 
   4690000   283.12131     -54.956741      36.37158       149.35708     -0.0018716018 
   4700000   313.49558     -52.187246      36.243089      170.01552     -0.00020647028
   4710000   288.1435      -56.531301      37.358562      151.74857      5.5971294e-06
   4720000   300.19874     -58.63226       33.370758      152.81075      0.00071281563
   4730000   324.44416     -53.002577      40.98757       180.43917      9.5880086e-05
   4740000   268.65917     -59.452184      43.494849      143.40624     -0.00034973246
   4750000   289.44398     -59.056469      43.669897      156.30616     -6.0970804e-05
   4760000   283.8278      -56.17637       38.236503      150.42145      0.00038395959
   4770000   314.45474     -53.068026      41.149012      174.60962      0.0005858263 
   4780000   279.94723     -50.807242      29.262868      144.51506      0.001165561  
   4790000   316.50499     -44.828167      39.853544      182.77019      0.0010894361 
   4800000   293.02091     -54.390343      38.213806      157.63796      0.00043514248
   4810000   320.85644     -54.491404      48.926451      184.76106     -0.00086643844
   4820000   315.29537     -52.104043      37.944428      172.86767      0.00027570791
   4830000   288.7709      -44.623335      38.934898      165.60503      0.00171351   
   4840000   328.57155     -50.253614      36.8818        181.53066      0.0011088957 
   4850000   276.16024     -47.565951      42.592047      158.83916     -0.0011027339 
   4860000   310.88558     -49.912437      43.715611      178.21466     -0.001923062  
   4870000   292.1636      -53.322638      32.792983      152.7763      -0.0013978321 
   4880000   312.87872     -54.240524      41.287097      172.64035     -0.00040733783
   4890000   291.0263      -55.034931      30.715026      148.31142      0.0011175092 
   4900000   299.90337     -56.591732      57.216596      178.52191     -0.0035406392 
   4910000   309.90265     -56.730302      50.054181      177.1523      -0.0012764872 
   4920000   307.78549     -47.450259      33.127466      168.24977      0.00038177335
   4930000   297.85618     -49.271425      38.787829      166.19909     -0.00064592215
   4940000   274.60151     -57.696376      34.365765      139.55784      0.00058869224
   4950000   306.9508      -56.856174      44.170063      169.39133     -0.0016984904 
   4960000   306.38522     -61.007025      46.146189      166.88112     -0.000446899  
   4970000   269.47449     -61.06163       43.87654       142.66211     -0.0017055182 
   4980000   303.19902     -63.868578      36.002779      151.98616      0.00073426057
   4990000   308.65854     -62.753097      47.786813      168.12416     -0.0015878434 
   5000000   311.40842     -63.181848      41.572769      163.11254     -0.00063906778
   5010000   316.59541     -57.618179      35.530812      165.71108      0.00095539402
   5020000   306.13926     -59.818957      46.436648      168.21374     -0.00022699477
   5030000   319.45214     -56.520767      39.353717      172.32596     -0.00054719908
   5040000   291.01547     -55.115607      42.02771       159.53701      0.00041279541
   5050000   291.90568     -58.70451       44.343426      158.79188     -0.0011452561 
   5060000   323.56001     -58.921536      33.768281      166.77646      0.0021396713 
   5070000   290.83483     -51.14736       39.220791      160.59118     -0.00036634958
   5080000   294.91288     -55.671857      37.566151      156.83107      0.00078743989
   5090000   312.34682     -61.695386      42.768936      166.35181      0.00092320233
   5100000   318.59243     -65.400342      43.119384      166.70208     -0.00026512532
   5110000   303.62752     -65.396142      32.100267      146.81026      0.0015563172 
   5120000   287.82624     -65.055741      42.631935      148.30931     -0.00091622622
   5130000   276.54609     -68.225433      46.024008      141.84052     -0.0022170578 
   5140000   325.67981     -62.265202      45.754992      176.67693     -0.0011449994 
   5150000   305.85804     -58.632136      37.616889      160.41399      0.00062938066
   5160000   342.5835      -59.48172       47.533119      191.26549      0.0002572704 
   5170000   298.46782     -70.224397      35.447929      142.26903     -0.00074567606
   5180000   295.03578     -64.663029      41.955224      152.30188      0.00060233838
   5190000   307.15462     -59.948855      35.870072      158.11956      0.00055374567
   5200000   302.82762     -58.320594      41.235253      162.54631     -0.00038161185
   5210000   308.32889     -51.749175      36.446399      167.59213      0.0012212279 
   5220000   298.60206     -52.532742      40.44342       165.03581      0.0002275466 
   5230000   302.06768     -55.537213      32.283895      155.92755      0.0014066159 
   5240000   297.64893     -45.516739      42.34426       173.38727      0.00041733814
   5250000   323.23202     -49.666181      46.101152      188.17013      0.00097349323
   5260000   288.71151     -52.942641      39.033394      157.34899     -0.00081931251
   5270000   314.43249     -55.93684       33.828607      164.40721      0.0016490901 
   5280000   314.28947     -62.179077      49.072898      173.32443      0.0011171773 
   5290000   284.58824     -58.750515      40.269407      150.33129      0.00085135204
   5300000   285.35609     -52.834962      35.305411      151.73832     -0.00050268561
   5310000   292.31353     -57.240554      34.763783      150.91812     -0.00030831159
   5320000   312.30452     -60.286165      40.375547      165.34255     -0.00096160864
   5330000   331.95216     -55.395501      47.431344      188.94362      0.00041705181
   5340000   306.73262     -51.34518       34.150519      164.75336      0.00091647335
   5350000   284.80954     -54.396316      37.309203      151.85655     -0.0012994657 
   5360000   272.16541     -60.073593      49.453267      150.82308     -0.0021389543 
   5370000   306.66241     -68.533079      34.059237      147.43253      0.0011025366 
   5380000   303.05661     -59.160479      36.634173      157.24118      0.00089133873
   5390000   338.23168     -55.958139      44.225905      188.90044     -0.00044921282
   5400000   309.22003     -50.204327      33.186659      166.40584      0.0007602373 
   5410000   304.70015     -49.961391      41.750301      172.53131     -3.9376984e-05
   5420000   295.22113     -47.726041      39.155686      166.54927     -0.00041739632
   5430000   309.04989     -47.897019      42.403605      177.82917     -0.0012814931 
   5440000   271.18156     -53.291668      36.510583      144.07872     -0.00065272847
   5450000   315.97781     -50.775866      36.873452      173.52968      0.0011872844 
   5460000   266.89173     -57.405336      41.782484      142.69231     -0.00025863739
   5470000   277.46785     -49.993512      41.532262      156.12746     -0.0013003045 
   5480000   294.08894     -59.219158      42.84183       158.0707      -0.00083680015
   5490000   300.85356     -57.653916      37.707229      158.51399      0.0012278363 
   5500000   325.50191     -49.614162      40.099297      183.56675      0.00030320622
   5510000   300.77423     -58.337176      45.148357      165.2248       0.00030512806
   5520000   288.411       -52.337778      32.486269      151.22847      0.0010297447 
   5530000   317.72688     -50.319853      41.95746       180.10722      0.00022568463
   5540000   305.66431     -50.714795      28.716856      159.31638      0.002040415  
   5550000   299.86464     -49.166585      44.753545      173.46103     -0.001852773  
   5560000   285.93901     -46.629045      42.405519      165.39012     -0.00017297237
   5570000   287.47921     -48.022254      40.878558      163.38357      3.8453987e-05
   5580000   328.28923     -56.615574      38.903227      177.02265     -0.00023729194
   5590000   323.55132     -61.499082      44.457549      174.88302      0.00043035997
   5600000   337.21254     -56.633645      36.725061      180.11956      0.00074838326
   5610000   284.64618     -62.083047      27.182629      133.94634      0.0015017758 
   5620000   295.69444     -62.602694      42.235109      155.0328      -0.0019881492 
   5630000   322.5312      -60.865364      31.806029      162.26011      0.0016923275 
   5640000   294.83865     -59.489115      43.911735      159.31537      2.2378992e-05
   5650000   283.20182     -58.280763      41.710108      151.41934     -0.00085599621
   5660000   299.11155     -62.400098      39.220679      154.24793      0.00022875839
   5670000   305.82        -63.532412      37.754957      155.62922      0.00068763841
   5680000   278.01052     -57.365272      49.32901       156.87435     -0.0026753688 
   5690000   280.2096      -56.019046      38.874621      149.07064      0.001485723  
   5700000   310.56348     -55.025232      34.981615      164.1768      -0.0001022409 
   5710000   300.43718     -58.453237      43.186273      162.94672     -0.00080006814
   5720000   286.05025     -56.819286      36.763292      149.62364      0.00017643454
   5730000   317.12366     -55.935901      38.495345      170.67123      0.00050084578
   5740000   276.71526     -55.60363       36.774623      145.31328      0.00040296768
   5750000   314.70071     -56.24011       36.097131      166.53157      0.0018861631 
   5760000   303.15574     -65.58308       36.911775      151.15498      0.00034521293
   5770000   277.30095     -56.730395      37.306217      145.06553      6.0028727e-05
   5780000   292.7885      -57.988579      34.110714      149.79877     -0.00028108686
   5790000   322.54937     -50.625522      40.16795       180.87265      0.00081376754
   5800000   313.9903      -50.881268      44.168008      179.53988     -0.0012228535 
   5810000   293.44799     -48.555475      44.785945      170.2983      -0.0016063353 
   5820000   345.52915     -56.182666      30.871573      179.6503       0.0020348681 
   5830000   302.83103     -62.514779      26.763912      143.8828       0.001225927  
   5840000   314.50295     -52.399918      40.600007      174.75732      0.0017150785 
   5850000   319.7224      -50.741448      40.551795      179.46366      0.0012301066 
   5860000   312.06561     -52.568846      34.018779      166.56139      0.00092032275
   5870000   325.39977     -50.041628      46.135546      189.11494      0.0002030453 
   5880000   284.40356     -50.693453      40.715145      158.72453     -0.0014704983 
   5890000   293.03616     -54.97          39.576784      158.43032     -0.0012932948 
   5900000   305.0485      -50.557225      37.586826      167.97863     -0.00064866964
   5910000   302.71179     -48.091833      36.878974      168.35009      0.0021534019 
   5920000   309.8628      -49.833051      40.570352      174.54209      0.00087143193
   5930000   298.86032     -48.256065      38.745966      167.76822      0.001847349  
   5940000   293.01015     -48.467502      31.441801      156.78241      0.00095484028
   5950000   310.23356     -46.877406      39.708719      176.85603      0.00059097361
   5960000   297.22062     -48.288025      36.564282      164.58194      0.00041916399
   5970000   271.83569     -50.727823      41.973803      152.4938      -0.0017318454 
   5980000   291.19142     -55.914377      35.654027      152.46893     -0.00016568853
   5990000   291.62472     -47.761667      37.241701      162.46633      0.0012881025 
   6000000   281.74791     -45.963934      40.939139      162.10277     -0.00041635306
   6010000   304.66466     -50.67485       44.490363      174.53686     -0.0015445512 
   6020000   300.26096     -44.930716      44.566562      177.745        0.00072246928
   6030000   299.20816     -40.245689      41.677039      178.91601     -0.00040016019
   6040000   304.72658     -37.574038      38.054216      181.23825      0.00088225156
   6050000   324.23834     -48.033673      38.023668      182.32208      0.00056808327
   6060000   307.69224     -44.581636      36.844337      174.77995     -7.8123345e-06
   6070000   298.03794     -38.844652      32.254567      170.20042      0.00018195085
   6080000   330.82689     -35.818444      41.914238      202.33609      0.0007311847 
   6090000   297.57945     -37.738328      42.090574      180.87078      0.0018617478 
   6100000   285.33709     -41.257731      36.897351      164.89622      0.00088338959
   6110000   315.89339     -50.906126      40.13339       176.60928      0.00033059826
   6120000   316.57116     -53.384517      36.394714      170.79426      0.0005465563 
   6130000   267.97364     -52.799166      40.123579      146.28134     -0.00067131884
   6140000   265.66408     -50.6413        33.719548      140.66519     -0.00019285965
   6150000   291.54587     -49.710293      38.463384      161.69262     -0.0001369241 
   6160000   322.89378     -48.033078      47.991933      191.49338      0.00082737568
   6170000   299.92022     -54.875994      52.390136      175.42118     -0.0016666497 
   6180000   306.68839     -49.142775      38.472975      171.25199      0.0015166154 
   6190000   307.00331     -52.611747      40.856956      170.3538       0.00086666712
   6200000   309.92323     -50.430619      39.047267      172.45728     -3.672361e-05 
   6210000   300.54001     -49.462517      37.40871       166.22088      0.0017010883 
   6220000   297.46928     -50.969102      34.098613      159.5827       0.00055922999
   6230000   288.03369     -59.837173      42.760011      153.77901     -0.00050302486
   6240000   338.6658      -49.10023       36.136904      187.92686      0.0021589057 
   6250000   321.7183      -48.722118      47.407253      189.52239      0.00011334588
   6260000   295.69014     -48.090846      42.619294      169.92628      0.001610304  
   6270000   330.9526      -49.628609      47.130208      193.81646      0.00064843301
   6280000   310.6264      -48.553397      37.490981      173.19532      0.0020236339 
   6290000   325.4674      -53.043307      37.2601        177.27794      0.00049489596
   6300000   292.25938     -57.695185      41.042818      156.7104       0.00052338767
   6310000   278.51804     -52.714948      38.220516      150.71723      0.00054371243
   6320000   298.88554     -44.1991        36.285838      169.38002      0.0011686009 
   6330000   285.46887     -43.58504       37.017887      162.76761     -8.4608382e-05
   6340000   287.27131     -41.644601      39.475641      168.23498     -4.8515347e-05
   6350000   307.13987     -49.638773      45.752152      178.30298     -0.00065810862
   6360000   330.84063     -46.769699      30.433806      179.91255      0.0027658203 
   6370000   318.7939      -48.146987      31.300668      172.25623      0.0031255163 
   6380000   303.14937     -46.629988      43.26223       176.45475      0.0016000238 
   6390000   318.10239     -50.329051      46.345929      184.70923      0.0011328845 
   6400000   320.4585      -51.558027      39.868911      178.40084     -0.00016721668
   6410000   335.10258     -52.173092      31.7393        178.34276      0.0027624611 
   6420000   310.79887     -55.64606       35.881516      164.5955       0.00089801315
   6430000   304.86698     -57.4135        30.62747       154.05533      0.0016813907 
   6440000   290.49916     -49.612586      29.280523      151.98658      0.00036475511
   6450000   297.6724      -49.550324      37.290452      164.3138       0.00025514442
   6460000   296.62577     -56.263963      47.423939      167.1128      -0.0021123908 
   6470000   299.82397     -51.328589      35.030443      161.5518       0.00081447649
   6480000   273.82134     -57.097244      29.425318      134.75375      0.00070820653
   6490000   307.89512     -61.916741      43.166028      163.88689      0.0009526246 
   6500000   277.78571     -56.535757      33.500505      141.74201      0.0011613216 
   6510000   286.09977     -56.883782      45.258083      158.08331     -0.00052148873
   6520000   291.91631     -52.360105      38.739028      159.53819     -0.00068191146
   6530000   281.56315     -51.822296      37.583524      152.77919      0.0019608673 
   6540000   305.79521     -55.039162      45.709131      172.06194     -0.00047667186
   6550000   271.82114     -48.525221      43.556127      156.27009      0.00044267712
   6560000   300.64544     -55.133181      33.794085      156.99813      0.00043787585
   6570000   309.99174     -54.661429      33.796649      163.01649      0.0027415219 
   6580000   309.28241     -54.736166      33.212098      161.93644      0.0011567275 
   6590000   301.84894     -53.117675      41.609165      167.54261      0.00032479372
   6600000   316.77582     -57.340059      35.230885      165.79629      0.0014632665 
   6610000   294.07324     -44.818486      34.151483      163.77171      0.00060440416
   6620000   282.46145     -55.658031      29.050662      140.94345      0.0016649022 
   6630000   256.14953     -54.47299       40.953895      138.42399     -0.00062091994
   6640000   326.44965     -58.594998      41.875408      176.92421      0.0010509541 
   6650000   293.81128     -52.918572      38.924897      160.28965     -0.00060809773
   6660000   306.42555     -56.41358       38.751285      164.10358     -0.00028466942
   6670000   302.64225     -58.679555      35.95005       156.79219      0.00048725546
   6680000   302.75044     -50.659882      33.0716        161.99759      0.00088491983
   6690000   299.04676     -51.861397      35.551605      161.07912      0.0011902033 
   6700000   324.22176     -53.357136      34.477375      173.44249      0.0030933769 
   6710000   302.07386     -47.381002      36.220756      168.02429      0.0010505081 
   6720000   311.98275     -47.82213       37.436453      174.67663      0.00097364749
   6730000   279.83938     -47.721422      30.477294      148.75133      0.00071474638
   6740000   310.70287     -45.793966      33.825859      172.33499      0.00053586309
   6750000   295.62334     -47.423799      38.644199      166.57861     -0.00012322377
   6760000   327.06183     -46.558749      41.687995      189.13618     -7.846279e-05 
   6770000   301.19107     -44.016432      35.044815      169.68927      0.00073654808
   6780000   315.90665     -43.641776      34.096851      177.84496      0.0019195763 
   6790000   290.70124     -40.465252      46.963812      178.93707     -0.00020626215
   6800000   297.09161     -43.318386      30.482043      163.39281      0.00093821127
   6810000   305.39085     -41.094933      34.495546      174.55273      0.0011384905 
   6820000   298.30957     -43.238451      27.957989      161.67117      0.0015765102 
   6830000   300.86834     -49.221779      36.966552      166.21422     -0.00014001455
   6840000   283.40463     -43.424906      36.767832      161.45323     -0.00022116296
   6850000   310.41426     -46.234378      42.925375      180.8229      -0.00072914189
   6860000   334.17777     -48.56816       36.95506       186.61487      0.00028417057
   6870000   311.08778     -47.757046      45.030161      181.80454      0.00048978438
   6880000   294.14786     -54.589678      48.535843      168.42915     -0.0016679987 
   6890000   302.48901     -51.00327       42.889264      171.31679      0.00082895618
   6900000   312.56045     -45.236662      43.515385      183.6837      -0.00045549278
   6910000   295.81791     -47.985348      31.90618       159.39446      0.00041971669
   6920000   317.27305     -51.976432      42.327122      178.5511       0.0002014885 
   6930000   280.79811     -49.004665      33.583618      151.14311     -0.00035840846
   6940000   308.01203     -47.753462      32.810477      167.76396      0.0023384004 
   6950000   294.67431     -49.324396      36.448956      161.91982      0.00070145554
   6960000   295.87219     -59.037654      35.044556      151.51272      0.00080338069
   6970000   321.30448     -52.721108      46.835549      184.70622     -0.00060433833
   6980000   314.70128     -54.734883      40.770141      172.71014     -0.00026746386
   6990000   287.14206     -52.732718      33.219052      150.8136       0.00041585656
   7000000   305.66139     -53.700381      31.734777      159.34699      0.0016809809 
   7010000   311.90291     -46.753261      35.527554      173.78924      0.002176997  
   7020000   307.81697     -54.237352      37.477759      165.83165      0.00051879674
   7030000   288.73591     -51.411276      43.666472      163.52791     -0.000315972  
   7040000   320.65363     -56.285379      38.465971      172.3863       0.00026353873
   7050000   288.57001     -56.123212      36.182493      151.23359      0.0014461403 
   7060000   278.90255     -45.129816      40.129131      160.43907     -0.00069193645
   7070000   292.96324     -42.96837       39.499503      170.31142     -0.00093433534
   7080000   308.39445     -47.413448      41.928368      177.44871      3.003541e-06 
   7090000   304.99024     -46.921161      37.498443      171.49176     -0.00020938373
   7100000   320.49045     -50.245438      37.18299       177.04646      0.00032149572
   7110000   301.6377      -48.518047      35.250815      165.65858      5.4479097e-05
   7120000   300.95289     -49.80549       34.752188      163.46629      0.0009030032 
   7130000   312.15727     -45.889383      39.117827      178.39427      0.00070346393
   7140000   271.01949     -43.751523      43.189734      160.20188     -0.00066618855
   7150000   315.48298     -40.880289      40.753506      187.01179      0.0029125152 
   7160000   321.88476     -47.065386      42.54423       186.41483      0.00015321647
   7170000   290.28183     -47.147847      36.137118      161.17899      0.0013152038 
   7180000   326.94919     -44.265235      42.881186      192.55606      0.00048022348
   7190000   283.02039     -44.122055      31.42832       155.18864      0.0020249382 
   7200000   304.93794     -37.399696      42.604053      186.08781      0.00050611541
   7210000   289.04517     -37.29045       32.559656      166.72537      0.0027933437 
   7220000   311.08155     -36.903015      37.406177      185.03089      0.0011198932 
   7230000   267.43173     -44.280922      50.639546      164.9941      -0.0020861551 
   7240000   310.94583     -44.722399      46.811497      186.53632     -0.0010184527 
   7250000   267.09859     -48.921088      35.460166      144.97694      0.00048230688
   7260000   303.68031     -51.29604       40.221332      169.06274      0.0011073024 
   7270000   290.97509     -43.042408      42.278956      171.8375      -0.00086993883
   7280000   340.77431     -48.092429      34.228864      188.27735      0.0012097843 
   7290000   291.7382      -49.473194      48.266144      171.84656     -0.00045521124
   7300000   325.17164     -61.136322      38.72094       170.47032      0.00063281933
   7310000   297.89364     -47.224117      34.535079      164.01587      0.00010276227
   7320000   300.65724     -39.925768      41.476707      179.89516     -0.00074794348
   7330000   298.08772     -41.765353      36.355129      171.40981      0.00071976784
   7340000   266.78848     -36.15525       41.193261      163.29192     -0.00036521811
   7350000   301.59138     -38.919211      37.034521      177.01365      0.00021448929
   7360000   306.84997     -41.735903      40.508159      180.78989      0.00032093352
   7370000   292.18804     -43.165637      42.242483      172.3973       0.00095666614
   7380000   303.5746      -49.294599      32.291971      163.07212      0.0011625979 
   7390000   291.58562     -52.521264      36.859145      157.30099      0.0019556353 
   7400000   264.76472     -50.859604      40.711338      146.90519     -0.00039175033
   7410000   308.98561     -51.047313      40.807748      173.04489      0.00035873988
   7420000   308.81463     -47.148919      32.669572      168.70369      0.0014671809 
   7430000   312.32997     -58.488404      40.676577      167.45644      0.00079812325
   7440000   320.81364     -56.048794      44.835494      179.08732      0.0012750117 
   7450000   341.46805     -60.523684      40.095087      182.12383      0.0022528663 
   7460000   309.59325     -58.130624      43.2474        168.76167      2.5441982e-05
   7470000   288.70793     -51.391746      39.454945      159.31931      0.0012395556 
   7480000   328.45601     -50.374214      43.61816       188.07787      0.00076983675
   7490000   304.21606     -43.616633      45.424989      182.2636       0.0005296994 
   7500000   316.46222     -39.846945      44.108324      191.98082      0.00074495821
   7510000   317.80468     -42.740371      30.724573      176.49997      0.0024435416 
   7520000   316.60199     -41.884628      52.50052       198.41824     -0.0012676586 
   7530000   273.08462     -43.561747      35.006086      153.433        0.0003905523 
   7540000   324.46653     -47.347451      39.375452      184.49545      0.00074298054
   7550000   258.70249     -48.449087      38.910455      143.91882     -0.00068652823
   7560000   304.03979     -51.157335      35.889296      165.08265      0.0020724878 
   7570000   293.57405     -45.641582      34.356429      162.85746      0.0014900379 
   7580000   326.53984     -51.579192      43.73957       185.85767     -0.000729528  
   7590000   300.89222     -55.080473      37.041638      160.44477      0.0004114757 
   7600000   298.7317      -56.895954      45.435794      165.74187     -0.00019744378
   7610000   315.97138     -50.598351      27.773523      164.60346      0.0030471774 
   7620000   307.17203     -51.25915       39.280264      170.22979     -0.00077749594
   7630000   291.09887     -45.347441      44.410354      171.73729     -0.00077201689
   7640000   295.25389     -51.321922      39.309562      163.12669      0.00080619685
   7650000   260.17615     -45.518962      48.255183      157.06782     -0.0025723455 
   7660000   316.49405     -51.804313      44.445651      180.37966     -0.0011124007 
   7670000   323.61098     -49.204813      35.877847      178.63299      0.0016395847 
   7680000   315.96739     -45.906843      47.470108      188.98918      0.00046256281
   7690000   294.57942     -42.232473      40.387662      172.89416     -0.00081655967
   7700000   305.88277     -54.333034      37.519565      164.63044      0.00017375754
   7710000   309.93406     -52.734111      46.511335      177.62428      5.2682447e-06
   7720000   300.5502      -47.217726      46.938148      178.00115     -0.00042043105
   7730000   256.27577     -60.481674      42.012696      133.54899     -0.0011032949 
   7740000   305.13574     -62.496887      39.391357      157.89525      0.0012860386 
   7750000   299.33178     -58.603866      41.843221      160.79734     -0.00035240535
   7760000   289.96021     -52.615224      34.679361      154.06308      0.0010965978 
   7770000   306.7646      -57.58345       33.461918      157.84546      0.0020783887 
   7780000   296.54793     -65.741676      37.632906      147.79789      0.0025015443 
   7790000   304.42125     -65.297059      41.016613      156.29652      0.0018477831 
   7800000   337.35341     -61.385293      29.877665      168.60407      0.0034781056 
   7810000   320.52351     -65.000088      31.46934       156.59777      0.0021874663 
   7820000   304.30853     -63.91074       40.285265      156.88462      0.0010466482 
   7830000   283.6497      -60.676015      37.448515      145.02817     -1.0512791e-05
   7840000   312.50504     -52.557268      41.892349      174.7072       0.0011314491 
   7850000   306.95887     -59.036325      37.33718       160.38309      0.00051452668
   7860000   304.06749     -53.640131      37.503735      164.23072      0.00037373435
   7870000   284.52503     -52.367918      42.663002      159.06998      0.00039578563
   7880000   289.54349     -50.358242      42.932125      164.32564     -0.00019140902
   7890000   304.7361      -55.45512       28.46423       153.77284      0.0018211921 
   7900000   324.54334     -47.768373      39.339008      184.08364      0.00057906716
   7910000   303.40344     -50.779163      42.329246      171.5233      -0.00099271789
   7920000   295.38149     -52.610139      48.45215       171.05676     -0.0014091545 
   7930000   289.71571     -50.239711      46.211454      167.82566     -0.0018839942 
   7940000   308.98824     -49.169216      35.956144      170.07294      0.00094177833
   7950000   329.04208     -53.929141      38.71936       179.97179      0.00031357162
   7960000   300.52208     -52.718693      45.321256      170.86661     -0.00099161334
   7970000   295.85289     -49.434934      46.374846      172.43429     -0.0023518688 
   7980000   280.8264      -56.060257      43.306087      153.82677     -0.00077792178
   7990000   291.66704     -56.911652      33.705428      149.80518      0.00069042542
   8000000   295.90666     -58.289009      28.20691       145.44417      0.0014691774 
   8010000   312.27539     -55.408703      37.509661      167.33685      0.00074389049
   8020000   311.64302     -44.593241      38.973233      179.24077      0.00056469541
   8030000   298.93808     -51.242317      33.334453      159.41659      0.0008857345 
   8040000   270.00056     -55.802394      41.032812      145.38968     -0.0014741513 
   8050000   324.56056     -58.302586      33.859472      168.08011      0.0027494822 
   8060000   300.52633     -56.028016      36.479692      158.71825      0.0014636591 
   8070000   291.41647     -59.440617      41.437522      154.85967      0.00027254245
   8080000   307.50002     -52.222583      47.636034      177.81668     -0.00078817491
   8090000   321.07965     -57.375198      39.036112      172.11933      0.00045119763
   8100000   311.92388     -55.385075      45.189158      174.83146      0.00056115003
   8110000   338.49508     -64.254065      38.679075      175.21393      0.0016450476 
   8120000   317.66531     -60.912107      38.382077      165.90306      0.0010990654 
   8130000   336.19857     -58.080182      35.716293      177.06278      0.00082059232
   8140000   306.91714     -58.983166      31.748088      154.8224       0.0011478223 
   8150000   287.52804     -51.493717      36.90678       155.96929     -0.00076554156
   8160000   297.72312     -50.888511      48.740493      174.45574     -0.0019981686 
   8170000   301.48979     -48.466087      41.982686      172.35467     -0.00058376426
   8180000   311.57942     -44.497111      43.432195      183.75814     -0.00021863215
   8190000   314.52494     -43.742462      29.008674      171.83649      0.0028181193 
   8200000   296.47303     -47.274077      43.765204      172.35335     -0.0012452912 
   8210000   307.97398     -50.177199      41.308295      173.81547     -0.00030373177
   8220000   304.01827     -46.641196      36.24155       169.93828     -0.00054373172
   8230000   279.83262     -41.562806      35.013556      159.4422       0.00045257723
   8240000   310.65155     -42.45669       39.203789      181.01976     -0.001029817  
   8250000   318.32328     -42.170828      50.474316      197.12687     -0.0015665066 
   8260000   298.61994     -44.563017      41.680433      174.25315      0.00072462937
   8270000   303.54845     -41.492067      46.308883      184.87605     -0.00079198374
   8280000   313.42754     -49.695681      35.669358      171.893        0.0010949514 
   8290000   284.67927     -37.120534      36.104868      167.85072      0.00021260607
   8300000   289.59734     -37.327551      46.704589      181.16074      6.979444e-05 
   8310000   303.25717     -45.558821      34.38579       168.71342      0.00098693202
   8320000   321.76566     -43.202547      36.058987      183.72178      0.002004019  
   8330000   319.9163      -35.761247      33.105006      187.11209      0.0012827784 
   8340000   288.20295     -43.687486      34.537229      161.80632     -0.00057304758
   8350000   292.00476     -49.287706      34.054632      157.97866      0.0012842828 
   8360000   319.28545     -46.053888      43.977408      187.31765      0.00054494473
   8370000   299.50957     -48.743482      36.531828      165.45179      0.0025080855 
   8380000   294.9892      -46.348564      49.562972      178.19645     -0.001916243  
   8390000   299.86216     -43.743035      39.651306      173.78087     -0.00080480856
   8400000   267.7185      -43.133332      46.165011      161.83726     -0.00049612163
   8410000   315.56597     -39.367086      53.09669       200.9174      -0.0017188039 
   8420000   300.33417     -44.591556      42.692368      176.2534       0.0011613935 
   8430000   294.24977     -37.429675      35.852585      172.96634      0.0008258701 
   8440000   277.76962     -41.640352      31.725294      154.85266      0.001179505  
   8450000   296.21156     -45.105318      34.753208      165.35502      0.00091236327
   8460000   271.1389      -36.451438      36.27798       160.66104      4.1563248e-05
   8470000   322.55611     -37.254707      39.089197      193.16871      0.0013015091 
   8480000   297.27545     -38.906733      38.134136      175.56561      0.00035773016
   8490000   303.64613     -35.887954      36.010828      180.24005      0.0029378728 
   8500000   290.4335      -37.342554      37.322137      172.25928     -0.0008395287 
   8510000   275.07978     -45.51717       34.824198      152.47918      0.00061374377
   8520000   313.27278     -38.026735      40.449116      188.2499       0.00028007001
   8530000   331.83369     -36.986118      42.542956      202.39434      0.0006402693 
   8540000   300.78331     -41.612085      52.043377      188.8503      -0.0022545414 
   8550000   312.03948     -42.352233      41.67777       184.42149     -0.00090410188
   8560000   336.13736     -44.172104      39.31994       194.5382       0.0016962125 
   8570000   305.77203     -47.506728      47.931563      181.80306     -0.0012355964 
   8580000   289.94511     -46.013667      44.296148      170.27247     -0.00082547776
   8590000   295.38872     -40.859157      35.472259      169.83214      0.00052838131
   8600000   324.99467     -38.538054      40.867343      195.11002      0.00047294062
   8610000   296.31177     -36.957384      35.052097      173.86128      0.00011269761
   8620000   297.04777     -45.319455      35.977489      166.86119     -0.00098519547
   8630000   310.93525     -46.148362      31.082621      169.37521      0.001881876  
   8640000   278.47555     -44.40943       40.91246       161.68949      0.00069578989
   8650000   306.49898     -41.334316      45.558607      186.03372     -0.00016938716
   8660000   304.60047     -47.557709      41.588097      174.71366     -0.00027048968
   8670000   286.19568     -43.730123      48.786208      174.82198     -0.0015149528 
   8680000   286.0391      -39.203778      39.989629      170.45887     -0.00071896849
   8690000   308.34523     -39.8174        40.947047      184.03424      0.0026662042 
   8700000   319.14624     -41.366787      41.113717      189.05848     -0.0002016286 
   8710000   302.29881     -41.807486      39.003846      176.51433      0.0023390196 
   8720000   291.85948     -40.047725      33.827317      166.90515      0.00077262042
   8730000   298.05835     -45.667497      35.689684      166.8248       0.0012836867 
   8740000   318.12229     -39.735594      33.429668      182.39823      0.0017085566 
   8750000   276.32103     -44.723373      41.105428      160.29049     -0.0004278789 
   8760000   325.09715     -40.166969      32.127025      184.80158      0.0022603799 
   8770000   320.06283     -45.644053      31.141205      175.3524       0.0027758604 
   8780000   304.82172     -50.588881      41.493691      171.71932     -6.6925283e-06
   8790000   277.71283     -44.579666      33.971499      154.12586     -0.00052753208
   8800000   313.20701     -43.673353      35.651618      177.76678      0.0016691297 
   8810000   289.35854     -44.596895      41.05911       168.10426     -0.000328659  
   8820000   301.46108     -44.968704      41.230458      175.0828      -6.7276695e-05
   8830000   291.7904      -41.25039       49.115005      180.94919     -0.002025606  
   8840000   275.45377     -38.64855       51.2701        176.01555     -0.0022806933 
   8850000   326.58873     -39.475618      33.698097      187.94877      0.00096779112
   8860000   316.76812     -34.755438      37.859221      191.00467      0.00078007543
   8870000   330.22866     -34.522648      37.366181      198.72897      0.00084224033
   8880000   273.03392     -37.152906      40.610803      165.41648      2.6881774e-05
   8890000   307.52968     -40.628744      37.397033      179.18912      7.7290284e-05
   8900000   299.47265     -40.925206      37.034514      173.75085      0.001634069  
   8910000   332.37674     -35.867492      40.809896      202.10204      0.0010077649 
   8920000   310.13039     -39.97998       37.907106      181.89064     -9.3272911e-05
   8930000   310.35087     -43.541621      41.232625      181.7853      -0.00015950905
   8940000   289.93317     -37.830285      40.233274      174.38589      0.00090372438
   8950000   272.91235     -35.62153       32.879696      159.14464      0.00032734916
   8960000   336.78194     -32.130569      46.413024      214.05517      0.00051322015
   8970000   296.70243     -33.602997      43.391734      185.78704     -0.00063322017
   8980000   307.58739     -38.946502      45.328437      188.83699     -0.0013578926 
   8990000   300.5224      -41.915664      45.548028      181.8966       0.0014891065 
   9000000   269.50299     -41.934803      37.562812      155.49212      0.00083969167
   9010000   288.52254     -38.02097       43.306272      176.43145     -0.00047223069
   9020000   289.73534     -40.472492      44.592483      175.98555     -0.0015745086 
   9030000   308.84263     -43.921426      37.639584      176.9178       0.0019024372 
   9040000   276.71667     -42.737584      40.781449      162.18699     -0.0005954475 
   9050000   297.47072     -39.640245      40.531822      177.34562      0.00030925009
   9060000   298.85936     -48.459167      38.488541      167.30713      0.0011689159 
   9070000   293.66819     -43.375804      38.754221      169.57687      0.00080210141
   9080000   294.09994     -43.072952      35.406183      166.78779     -0.00053701266
   9090000   320.82901     -41.771568      39.946653      188.48482      0.0022959555 
   9100000   309.02218     -48.175833      41.191507      176.32182     -0.00031200913
   9110000   313.05543     -45.857734      43.967721      183.80858     -0.00048558649
   9120000   286.21998     -44.16737       36.427822      162.04077      0.00056052032
   9130000   296.22975     -36.280634      39.083908      178.52119      0.00044586951
   9140000   281.13927     -36.761604      46.385458      176.39038     -0.0010778824 
   9150000   293.03322     -35.676987      36.809589      174.9544      -0.00022989389
   9160000   309.14751     -34.243486      37.298166      186.43517     -0.00033830512
   9170000   297.57792     -35.138062      39.051546      180.43111      0.00025763204
   9180000   313.30794     -32.919436      41.453802      194.38274      0.00072825655
   9190000   318.21626     -32.084882      33.943062      190.61809      0.0015724733 
   9200000   295.40882     -30.240618      42.774475      187.76482     -0.00030471565
   9210000   285.15708     -30.420425      42.701984      181.43138      0.00041216054
   9220000   326.65547     -28.715334      43.679574      208.73012      6.207548e-05 
   9230000   307.4634      -28.852734      41.864347      195.39312      0.00098305475
   9240000   298.23909     -29.997771      43.846828      190.75888      0.00027606204
   9250000   301.9831      -35.114163      34.50523       178.52177      0.0010977925 
   9260000   313.5777      -35.336241      35.34261       186.01477      0.0013695423 
   9270000   275.57879     -35.157378      32.171734      160.48251      0.001891038  
   9280000   282.19639     -29.952302      39.583824      177.02511      0.00014292986
   9290000   322.26783     -32.751045      36.758387      195.17056      0.0028262902 
   9300000   314.19359     -30.794119      33.013821      188.59343      0.0011125487 
   9310000   297.23006     -37.688267      35.01878       173.6418       0.0016185608 
   9320000   331.4658      -39.128618      45.958618      203.44928      0.0018316098 
   9330000   324.47957     -35.177166      47.267178      204.56519      0.0018535088 
   9340000   310.55477     -30.970655      41.706683      194.95128     -0.00029304283
   9350000   306.49722     -32.512294      34.25812       183.55422      0.0010733535 
   9360000   307.13284     -33.123759      44.369896      193.43157      0.00014580858
   9370000   309.88332     -26.081346      40.853803      198.58942      0.0019953827 
   9380000   314.83626     -32.847853      44.690413      198.59751      0.00071429833
   9390000   301.46395     -30.908199      36.539196      184.45374      3.644407e-05 
   9400000   286.99876     -25.75451       38.061625      182.54938      0.0033707027 
   9410000   312.36066     -32.663247      40.075731      192.69896      0.0003442969 
   9420000   303.87314     -28.104649      35.413563      187.56075      0.00075442624
   9430000   293.23813     -28.744972      38.055989      183.25436      0.00053582912
   9440000   292.02288     -33.997493      45.679552      184.90454      0.00073600205
   9450000   309.74383     -31.904066      38.916432      190.74658      0.0024703188 
   9460000   325.33684     -26.572735      38.316391      204.72735      0.0010964328 
   9470000   292.57221     -25.633936      36.524484      184.43888      0.00079017854
   9480000   312.32618     -27.04646       36.363828      194.58338      0.0012098019 
   9490000   299.87719     -24.642877      35.466941      188.70558      0.0009684686 
   9500000   305.42894     -30.316901      30.836932      181.69474      0.0019625439 
   9510000   282.21874     -39.190075      45.554273      173.77105     -0.0018880878 
   9520000   303.70112     -43.875113      32.37952       168.6542       0.0021683392 
   9530000   259.20481     -43.39116       29.104052      139.46831      4.8945526e-05
   9540000   287.23272     -38.083288      34.910484      167.20825      0.0017431597 
   9550000   296.31869     -31.335429      39.127551      183.5628       0.0010657653 
   9560000   329.48045     -37.861512      41.122977      198.70307      0.0012641492 
   9570000   326.99265     -37.216835      51.755236      208.5043      -0.00016221074
   9580000   279.82396     -32.897626      51.616048      184.70474     -0.0032535954 
   9590000   323.25214     -37.303019      33.460506      187.90458      0.0012401491 
   9600000   293.75695     -35.459273      38.761932      177.55376      0.00055358577
   9610000   303.33638     -39.212774      32.159791      172.88046      0.0026971451 
   9620000   298.51607     -42.16357       39.707772      174.61832      0.00029928289
   9630000   308.77688     -43.536927      32.293863      171.91758      0.0017610503 
   9640000   308.48659     -41.383377      36.621648      178.22672      0.0014964243 
   9650000   310.8651      -44.634935      43.452306      183.21671      0.00028622244
   9660000   315.58607     -45.202597      28.119434      170.11656      0.0031244029 
   9670000   325.95386     -38.312694      34.338263      189.37527      0.0027279586 
   9680000   317.98176     -39.592448      34.341402      183.36976      0.00095630181
   9690000   306.38947     -41.296242      35.06326       175.51149      0.0017960081 
   9700000   264.52743     -39.138983      34.04565       151.81937      0.0013615731 
   9710000   295.95844     -44.700901      39.397258      170.25334      0.00048271488
   9720000   276.89875     -37.917638      43.028793      169.36229     -0.00090534082
   9730000   309.36459     -37.841747      36.715923      182.38343      0.00077769556
   9740000   294.77568     -34.047948      44.099007      184.90645     -0.0006743838 
   9750000   300.25933     -32.944614      52.985524      198.1491      -0.0011319409 
   9760000   330.35143     -36.16248       34.091384      193.88716      0.00085493095
   9770000   286.65687     -36.418924      41.060615      174.68116     -8.8428598e-05
   9780000   320.63967     -34.801825      36.745337      192.14093      0.0025918681 
   9790000   297.65045     -46.870361      35.10893       164.79922      0.0012431158 
   9800000   300.43801     -46.605124      45.616272      177.22533      0.0012933515 
   9810000   318.44184     -48.258072      32.910373      173.54602      0.0020890825 
   9820000   287.31614     -54.945399      33.877034      149.36217      0.00060980823
   9830000   322.21014     -52.954638      37.936169      176.11053      0.0014953746 
   9840000   289.17283     -50.092207      39.836336      161.27602     -1.0970447e-06
   9850000   291.65187     -48.897015      45.156015      169.26141      1.7240456e-05
   9860000   268.95608     -49.478332      33.91411       143.97547      0.00061736429
   9870000   312.9039      -54.21063       46.6242        178.02228      0.0004713231 
   9880000   306.77027     -43.204263      39.809671      178.57576      0.00096284948
   9890000   310.61203     -48.485695      44.746042      180.50957      0.00013701857
   9900000   297.82235     -51.590607      33.061712      158.13372      0.00066066777
   9910000   312.42946     -52.993988      52.741761      185.07505     -0.00021369821
   9920000   298.14462     -50.583847      38.361637      164.63157      0.0021988528 
   9930000   287.10104     -42.308885      35.928261      163.92232      0.0010620039 
   9940000   306.92462     -43.125326      34.539273      173.47586      0.0017457677 
   9950000   299.58547     -43.787923      42.475928      176.39647      0.0010474214 
   9960000   298.65827     -44.041838      45.117362      178.23399     -0.00054173435
   9970000   300.96463     -47.070084      37.675849      169.13233      0.0010454774 
   9980000   277.05372     -38.507844      40.910419      166.74563      7.1784983e-05
   9990000   299.98207     -42.090795      35.370714      171.22364      0.00062155114
  10000000   291.31776     -30.307843      42.175783      184.67216     -0.00037067425
  10010000   285.6114      -34.402197      35.497787      170.5149       0.0012385195 
  10020000   279.00933     -40.327173      29.392855      154.56877      0.0022356039 
  10030000   312.92976     -42.783276      31.698596      174.53937      0.0033147512 
  10040000   311.43407     -32.832008      33.938691      185.84352      0.0023288672 
  10050000   331.4581      -31.922705      33.988457      198.68046      0.0019429692 
  10060000   322.24543     -35.928736      29.644694      184.86589      0.0034951533 
  10070000   306.35237     -46.871084      33.034786      167.88617      0.0024692625 
  10080000   323.70938     -40.556346      32.436428      183.8984       0.0031806094 
  10090000   309.87347     -45.007201      30.685671      169.48959      0.0018680869 
  10100000   271.23126     -39.113879      39.248604      161.02401      0.00072557051
  10110000   301.48697     -39.429265      38.188439      177.59558      0.00048666261
  10120000   292.14088     -34.176745      29.957337      169.07307      0.0021476951 
  10130000   264.34476     -38.390367      36.678604      155.09258     -0.0010337694 
  10140000   310.32724     -41.988177      42.933044      185.02515     -0.00041276974
  10150000   324.04552     -44.015667      33.911764      182.11381      0.0010581133 
  10160000   286.18102     -45.106485      46.956721      171.60743     -0.0023007913 
  10170000   300.51744     -43.32974       48.503729      183.43529     -0.00095069403
  10180000   308.26352     -43.585104      28.859888      168.13091      0.0025785333 
  10190000   307.86416     -48.492659      39.574423      173.701       -0.00022305173
  10200000   259.69757     -39.377872      35.675806      150.34565      0.00019512836
  10210000   289.37424     -38.595828      39.83153       172.88706     -0.00025047933
  10220000   333.11269     -38.004131      37.639315      197.23137      0.00030314435
  10230000   287.81413     -45.156517      47.076522      172.64594      0.00091665819
  10240000   339.53798     -48.064864      36.059048      189.40173      0.0026719838 
  10250000   324.23627     -52.270043      44.61837       184.67919      5.5754143e-05
  10260000   290.55316     -45.375293      38.357061      165.33244     -0.00012588355
  10270000   289.90125     -48.685884      41.289529      164.56761      0.00076829956
  10280000   262.51878     -42.125632      32.319949      145.91552      0.00094661139
  10290000   277.22937     -50.245813      39.524632      153.72607     -0.0011505574 
  10300000   294.14687     -44.847076      33.817661      163.45298      0.00090460194
  10310000   296.50586     -46.818677      36.40232       165.46534      0.0011324127 
  10320000   296.68451     -52.386323      39.137615      162.73897     -0.00036406254
  10330000   316.68367     -48.374541      34.119015      173.59528      0.0022801469 
  10340000   294.70471     -44.878357      31.943524      161.87846      0.002197349  
  10350000   278.8242      -38.672674      44.167162      170.88776     -0.00075268841
  10360000   300.01969     -42.05527       36.417271      172.32804      0.0012323636 
  10370000   275.45071     -44.251843      38.784936      157.92528     -0.00080712707
  10380000   298.00533     -39.510295      37.997668      175.25853      0.00093286975
  10390000   321.7496      -41.224646      36.429574      186.06074      0.0015983957 
  10400000   315.9426      -36.653334      38.641762      189.39964      0.0022846243 
  10410000   274.98453     -30.424115      36.354834      169.04637      0.0020246088 
  10420000   296.30326     -35.548394      39.519244      179.73237     -0.00020561654
  10430000   312.18344     -40.185391      34.182195      179.17815      0.0010019429 
  10440000   320.85076     -37.838811      30.949652      183.43348      0.0027724861 
  10450000   283.76229     -36.810127      33.870289      165.38262      0.0014268721 
  10460000   268.52649     -42.531002      38.984913      155.73878     -0.00035639132
  10470000   295.8039      -33.677178      36.466578      178.25471      0.0015437564 
  10480000   287.00626     -30.943228      36.389379      175.69287      0.0010037342 
  10490000   290.2456      -24.140545      37.092111      185.1198       0.0012383657 
  10500000   298.578       -25.602767      36.849149      188.35724      0.0023812561 
  10510000   286.89916     -28.896433      35.491289      176.77805      0.0032023809 
  10520000   322.19958     -35.784417      30.224656      185.56297      0.0027428316 
  10530000   309.81144     -34.026238      33.196333      182.94442      0.001767011  
  10540000   285.83533     -34.34371       41.05088       176.25931      0.001866176  
  10550000   324.10402     -32.307207      37.491515      197.43672      0.002500599  
  10560000   304.37022     -27.613524      28.785821      181.71899      0.0028704587 
  10570000   305.73082     -35.669378      33.982085      179.66648      0.0022456183 
  10580000   325.8757      -33.87492       27.62477       187.05319      0.0031333543 
  10590000   349.0291      -34.014867      33.235186      206.25782      0.0030107627 
  10600000   289.36415     -33.827932      34.067809      171.88525      0.00054603236
  10610000   285.9813      -26.684718      42.560525      185.51454      0.00056140899
  10620000   318.73262     -33.947454      45.904573      201.02332      0.00042842422
  10630000   282.34308     -39.541017      48.620781      176.56037     -0.00069971916
  10640000   286.18163     -37.347015      42.036366      174.44691      2.5028273e-05
  10650000   332.06177     -34.497676      40.257266      202.73239      0.001179816  
  10660000   308.44544     -35.17943       32.528602      180.31321      0.0016015674 
  10670000   286.40042     -36.096082      36.467684      170.25894      0.0014254968 
  10680000   285.83929     -41.713876      37.730081      165.5707      -6.1838683e-05
  10690000   301.18269     -39.445566      45.627438      184.83778      8.0942261e-05
  10700000   309.66325     -45.117696      43.196083      181.76481     -8.6879116e-05
  10710000   282.95274     -46.183005      31.973235      153.63248      0.0016111354 
  10720000   270.58084     -42.941588      45.024316      162.58619     -0.00010710231
  10730000   303.53083     -46.878929      39.068739      172.23859      0.0025171506 
  10740000   297.16047     -48.621876      30.671952      158.32008      0.0028066326 
  10750000   331.08695     -47.973398      33.786241      182.2074       0.0030172953 
  10760000   306.88004     -45.429095      36.841325      173.4477      -0.00014255051
  10770000   311.82322     -44.348108      38.666153      179.28572      0.0015101609 
  10780000   280.06122     -39.912647      39.206327      165.42073      0.00066314948
  10790000   291.4806      -36.144019      38.35386       175.11065     -0.00015103806
  10800000   303.18312     -35.187053      51.497779      196.15325     -0.0010084977 
  10810000   282.13073     -40.338766      32.878013      159.89389      0.0015228458 
  10820000   313.61884     -35.72939       26.824736      177.12814      0.0038358312 
  10830000   297.7787      -33.301898      32.994079      176.32891      0.0012928617 
  10840000   312.26254     -37.767535      33.162655      180.62339      0.0018695113 
  10850000   321.78379     -43.43069       35.129258      182.57466      0.00080756638
  10860000   305.83526     -40.897876      35.170145      175.68799      0.0015165406 
  10870000   279.64088     -37.980265      36.370641      164.26809      0.00045675252
  10880000   286.08505     -49.554987      33.530718      153.676        5.5235954e-05
  10890000   327.92298     -40.060388      38.772619      193.22998      0.0019296479 
  10900000   301.23253     -45.342919      40.137032      173.47959      0.00024302355
  10910000   286.41019     -43.867992      43.223282      169.24843     -0.0015731839 
  10920000   293.25463     -44.223107      40.494683      170.22471      0.00022617263
  10930000   313.5226      -44.057562      25.91094       167.82909      0.0032872341 
  10940000   333.91815     -45.974744      41.691309      193.79053      0.0007377268 
  10950000   279.03829     -45.695974      52.450022      172.27432     -0.0022336391 
  10960000   304.94854     -50.179375      43.950706      174.66107      0.00017816472
  10970000   300.11616     -51.369581      40.624917      167.2786      -0.00065252984
  10980000   309.7685      -50.890373      40.600043      173.45852      0.0013387221 
  10990000   355.37585     -50.295167      32.831138      193.33825      0.003064535  
  11000000   306.34167     -45.270878      36.229259      172.6745       0.0016806365 
  11010000   344.20844     -43.708357      31.840382      192.31         0.0028132055 
  11020000   311.51169     -45.081466      39.455396      179.15681      0.0012148412 
  11030000   284.73569     -50.792432      40.894677      159.0021      -0.00091620492
  11040000   277.00441     -47.23125       40.054979      157.13754     -0.00033999828
  11050000   299.71532     -45.518746      36.743807      169.01055      0.0011907598 
  11060000   290.76104     -46.238275      37.562361      163.79807      0.0011921616 
  11070000   302.92702     -47.058117      30.741608      163.37411      0.0025745986 
  11080000   289.45045     -46.676039      38.586473      163.607       -0.00084517398
  11090000   290.8623      -50.900721      40.191162      161.82449      0.0010713348 
  11100000   346.4931      -59.795044      33.342565      179.08071      0.0024404667 
  11110000   329.00957     -53.739238      30.832199      172.25525      0.0026655149 
  11120000   321.15387     -46.609282      33.35619       177.24934      0.0037097429 
  11130000   317.03198     -50.135109      33.366371      171.28867      0.002293125  
  11140000   268.5637      -56.993662      49.213059      151.52634     -0.00078453077
  11150000   295.83077     -53.976937      36.266274      157.77059      0.0003626085 
  11160000   285.80281     -55.904709      33.925831      147.55398      0.00078831047
  11170000   295.56116     -53.805146      40.945559      162.46174     -0.00023447505
  11180000   304.74538     -53.696052      27.173259      154.24644      0.0030592417 
  11190000   296.48115     -54.740198      38.163185      159.29003      0.0020191313 
  11200000   270.17152     -57.981908      33.534899      135.81365     -8.6298645e-06
  11210000   327.11495     -55.543492      40.84497       179.33992      0.0025528485 
  11220000   273.15752     -55.349016      39.959558      146.64245     -0.00034649174
  11230000   297.75147     -49.324712      34.507823      161.80369      0.0017424239 
  11240000   295.57474     -46.729028      38.609762      167.21012      2.0022351e-05
  11250000   292.32176     -51.937917      35.156795      156.61865      0.00024250184
  11260000   315.44372     -49.403512      36.94429       174.65606      0.0031677712 
  11270000   280.75558     -54.361115      30.515151      142.69297      0.0011884579 
  11280000   300.93228     -51.255375      48.821773      176.07377     -0.00013637329
  11290000   333.0317      -50.254163      27.323187      174.61717      0.0033318731 
  11300000   302.67019     -41.165005      37.812502      176.18576      0.0013703449 
  11310000   312.38759     -42.068602      43.832951      187.0668       0.00011237904
  11320000   289.09227     -44.530493      44.805328      171.75893     -0.0010489224 
  11330000   278.89902     -43.142087      34.74421       157.03978      0.0023661672 
  11340000   294.04195     -49.274119      41.51913       166.66517      0.0019112251 
  11350000   317.98272     -49.856195      33.33111       172.09628      0.0033599507 
  11360000   244.45366     -44.774642      35.598222      135.8289      -0.00087859714
  11370000   307.34071     -38.871287      30.685239      174.12268      0.0026682799 
  11380000   263.23557     -39.373954      39.313743      156.08618     -0.00093072489
  11390000   295.92112     -33.790949      43.776057      185.51995      0.00099005385
  11400000   321.13729     -40.36956       37.961161      188.08421      0.00066253665
  11410000   334.77859     -43.293853      39.661043      194.95156      0.0031092061 
  11420000   306.43859     -43.061867      35.752562      174.4643       0.0015725573 
  11430000   302.47501     -48.253671      38.53082       169.69964      0.001054758  
  11440000   298.3014      -41.135724      40.765696      176.57675      0.00094361752
  11450000   316.98109     -38.214955      33.177764      182.99003      0.0012848482 
  11460000   295.51365     -43.06306       37.871484      170.10156     -0.00019883066
  11470000   297.16503     -50.139366      34.482157      160.6155       0.0017106667 
  11480000   275.76992     -42.716103      27.59134       148.45677      0.0045498063 
  11490000   285.67777     -42.114269      37.426099      164.77051      0.00041952285
  11500000   285.1863      -37.103515      34.611807      166.67545      0.0012609193 
  11510000   290.76005     -40.10608       40.309807      172.67712      0.0015494706 
  11520000   306.3096      -42.903662      36.413876      175.20731      0.0011322547 
  11530000   307.66957     -44.47822       39.321769      177.34735     -0.00087462236
  11540000   298.03761     -51.84653       36.875628      161.81941      0.00073415859
  11550000   328.91828     -43.347393      31.422695      183.18344      0.0025581259 
  11560000   335.33965     -44.435384      31.46565       185.94744      0.0018493401 
  11570000   300.77259     -43.319295      38.666262      173.75961      0.0010594026 
  11580000   315.8273      -51.616888      38.190663      173.9166       0.00078139895
  11590000   326.95806     -50.012015      29.018738      172.9521       0.0037396214 
  11600000   291.57658     -52.38527       35.34472       155.91719      0.00048020696
  11610000   333.34289     -50.140721      39.871599      187.46361      0.0018057781 
  11620000   303.45415     -45.757208      42.217015      176.4631       0.0019488316 
  11630000   304.28642     -53.926688      37.386648      163.95694     -0.00034585358
  11640000   286.61456     -51.184822      41.843207      160.67275      0.0001668917 
  11650000   334.0419      -43.891153      37.917698      192.17392      0.0016299712 
  11660000   289.81982     -47.851282      48.749823      172.81421     -0.00054959528
  11670000   291.37156     -54.402995      41.304466      159.7376       0.00095993707
  11680000   292.75541     -44.777542      34.036918      162.91638      0.00061058017
  11690000   286.72803     -46.230414      37.705356      161.55662     -0.00022702546
  11700000   312.10875     -47.916018      44.68174       181.90277     -0.0003729105 
  11710000   310.83631     -48.656183      41.027217      176.75329      0.0023638454 
  11720000   299.61565     -44.161048      37.10116       170.66648     -0.0009275847 
  11730000   286.11204     -41.124484      31.338929      159.93073      0.0019739235 
  11740000   300.03525     -37.560756      41.289703      181.70422      0.00020079982
  11750000   300.56292     -41.115826      36.630162      173.80261      0.00062684435
  11760000   289.54505     -43.375034      38.48886       166.86651      0.0026249503 
  11770000   265.28547     -46.306687      36.928655      147.98432      0.00056088397
  11780000   291.37113     -39.887704      30.649241      163.59742      0.0023490944 
  11790000   299.94222     -42.169758      43.833616      179.58394      0.0018114052 
  11800000   290.51573     -43.404199      36.503472      165.42774      0.0006943091 
  11810000   274.13917     -39.478429      43.3014        166.43717      0.00039312147
  11820000   293.88153     -36.250038      36.245461      174.32042     -0.00069403234
  11830000   314.33174     -38.74183       46.082059      193.79591     -0.00044744142
  11840000   288.61017     -45.102407      40.789172      166.88489      0.0011188157 
  11850000   293.2578      -44.631859      33.975244      163.2984       0.0013290469 
  11860000   304.12292     -37.449439      34.861901      177.81246      0.00057665333
  11870000   285.81337     -40.99957       37.284853      165.8244       0.00030627775
  11880000   307.99097     -41.443957      36.408768      177.65926      0.00026736614
  11890000   290.14199     -39.199617      33.847433      166.75459      0.0024242233 
  11900000   308.01066     -37.16498       40.420197      185.96135     -0.00058480037
  11910000   331.77047     -38.795296      34.054567      192.05928      0.0010927323 
  11920000   291.19449     -41.483117      40.787057      172.03504     -0.00063239579
  11930000   292.40969     -40.214543      52.070813      185.3082      -0.0021289915 
  11940000   313.48093     -45.019206      37.980978      178.91276      0.0012865461 
  11950000   283.4055      -47.800942      35.861186      156.17106     -0.00082057135
  11960000   291.10431     -47.364388      27.638237      152.95145      0.0029949014 
  11970000   321.5592      -46.036534      34.927904      179.63424      0.0010123597 
  11980000   283.81564     -42.759366      39.618367      165.2131       0.00069891842
  11990000   312.8094      -35.082023      38.332135      188.80277      0.00068145257
  12000000   307.2168      -37.927607      36.436531      180.74415      0.0011175273 
  12010000   305.37248     -41.129893      45.817425      185.82875     -0.0002424406 
  12020000   271.60096     -37.177934      38.868977      162.79963     -0.00072620864
  12030000   303.50972     -40.268306      41.191747      180.9597       0.00024389563
  12040000   313.60036     -39.764174      29.80048       176.05815      0.0028152784 
  12050000   311.10829     -46.007263      37.270293      175.80662      0.0007915277 
  12060000   303.53654     -47.630239      36.989243      169.41117      6.3929992e-06
  12070000   295.88631     -49.063585      40.492635      166.94324     -0.00041618335
  12080000   349.44734     -50.343124      40.501069      197.44354      0.0025435935 
  12090000   290.27657     -50.970715      32.733685      153.94958      0.00067996311
  12100000   298.80295     -58.485847      42.789922      161.54836     -0.00046362399
  12110000   292.6288      -55.431277      35.824218      153.97484      0.00045761989
  12120000   297.64065     -52.574177      48.782407      172.76307     -0.0013775769 
  12130000   309.88795     -50.42451       35.628266      169.02346      0.0020440321 
  12140000   315.53079     -48.929298      36.800739      175.03837      0.0018285529 
  12150000   288.15122     -47.243414      42.499574      166.18204     -8.5285245e-05
  12160000   301.18113     -45.690359      32.775531      165.74015      0.002385126  
  12170000   293.37198     -48.334792      42.048943      167.73689      0.00045677659
  12180000   306.50061     -53.899156      45.509292      173.42053     -0.00045135132
  12190000   295.08684     -51.444219      37.369835      160.96558      0.0006423092 
  12200000   280.8308      -50.22202       38.69354       155.05507     -0.00081349694
  12210000   321.98803     -41.81724       28.04444       177.22444      0.0034693795 
  12220000   288.91834     -51.805038      33.756015      153.3319       0.0027950375 
  12230000   301.7403      -54.900688      35.280256      159.36624      0.0013886118 
  12240000   309.30369     -53.342331      29.087652      159.21845      0.0029840062 
  12250000   323.29427     -50.83471       41.068263      182.00563      0.0007709802 
  12260000   317.90634     -55.055692      38.680806      172.20118      0.00063956331
  12270000   302.21082     -51.14023       29.724286      157.84984      0.002891135  
  12280000   318.97153     -51.01056       39.291674      177.48903      0.00072918255
  12290000   298.97047     -48.275991      34.285435      163.35311      0.0019518204 
  12300000   276.26416     -45.277623      31.926125      150.52321     -0.0004479815 
  12310000   297.67944     -56.875766      37.748862      157.45094      0.001614086  
  12320000   301.12003     -48.603311      27.262569      157.278        0.0019837563 
  12330000   309.07765     -45.418617      28.930346      166.85078      0.0030246644 
  12340000   292.467       -43.694823      45.693681      175.48479      0.0010424583 
  12350000   304.46198     -50.483536      33.81279       163.93037      0.0022412706 
  12360000   310.61562     -41.286802      33.719244      176.68379      0.00023631182
  12370000   322.42064     -43.744286      47.92153       195.43111      7.6862648e-05
  12380000   286.50134     -31.742672      38.650675      176.85521      0.00061535121
  12390000   271.0864      -36.699387      41.558449      165.66242     -0.00044045283
  12400000   311.92772     -45.729072      38.509752      177.81034      0.0010065341 
  12410000   289.66793     -48.922727      35.965372      158.86821      0.0014436866 
  12420000   286.3753      -52.500619      40.820618      158.19245     -0.00041641133
  12430000   295.42892     -47.167919      42.065251      170.14021     -0.00065212701
  12440000   265.18697     -56.28303       39.659502      140.6804      -0.0001797582 
  12450000   304.57836     -49.99122       41.942939      172.62188      0.00069745026
  12460000   300.53088     -50.36499       34.687472      162.59175      0.00072745899
  12470000   290.65501     -54.463904      35.514977      153.46216      0.0012011812 
  12480000   322.90481     -45.648417      44.935458      190.8281       0.00042738222
  12490000   304.83123     -45.30032       39.018121      174.53796      0.00048975718
  12500000   317.34097     -49.651631      39.251458      177.84052     -0.00021378672
  12510000   272.9977      -47.254948      34.448415      149.13057     -0.00067967563
  12520000   315.5489      -55.278068      40.172332      172.07194     -0.00011942316
  12530000   304.1443      -55.60268       36.317129      161.12713      0.0012055833 
  12540000   279.93108     -53.843339      38.220425      150.42694      0.00060838607
  12550000   277.62906     -54.444449      33.064954      143.30484      0.00063206461
  12560000   328.26037     -60.849044      30.792394      164.66123      0.0032661961 
  12570000   298.77832     -61.665857      36.675352      152.23918      0.00099796693
  12580000   304.22642     -50.892488      35.76741       165.33632      0.0010491564 
  12590000   325.51702     -45.741297      40.57543       187.92471      0.0012218519 
  12600000   323.6657      -39.029389      44.482991      197.44601      0.00087949649
  12610000   295.44827     -38.442964      33.412537      170.22393      0.0012559968 
  12620000   302.93966     -39.116826      48.346003      188.92729      0.00028319682
  12630000   309.97343     -45.999194      36.872685      174.7439       0.00056434026
  12640000   318.53673     -45.937149      39.402176      182.41502      0.00040140479
  12650000   290.5833      -46.189408      33.771872      159.95101      0.0017390115 
  12660000   306.45907     -40.061613      39.53029       181.25444      0.00032572341
  12670000   298.22851     -35.92787       32.226415      173.20209      0.00065642284
  12680000   296.65928     -39.060062      36.26557       173.17821      0.00094763148
  12690000   286.49497     -37.469296      48.242743      180.71687     -0.0011049836 
  12700000   339.85288     -45.921614      36.771025      192.44375      0.0019639586 
  12710000   311.29383     -48.740927      37.27278       173.1855       0.0014295099 
  12720000   307.55312     -40.543877      38.448192      180.33904      0.0017930687 
  12730000   317.72648     -45.575764      43.820682      186.71429      0.00034616131
  12740000   288.15257     -42.174946      35.282303      164.03404      0.0022081376 
  12750000   306.11392     -42.128065      37.010451      176.46341      0.00073483508
  12760000   316.29317     -40.86697       42.101552      188.85374      0.0021719411 
  12770000   322.67866     -29.011579      31.304342      193.69968      0.0020903325 
  12780000   287.73703     -44.505903      35.425185      161.59948      0.001562126  
  12790000   301.49956     -47.360084      37.548394      169.03218      0.00090789756
  12800000   312.73644     -50.142626      35.192398      170.55915      0.0019940923 
  12810000   318.87041     -49.403584      45.226438      184.97079     -0.0004344446 
  12820000   290.28489     -49.376196      29.125221      151.94056      0.0017054618 
  12830000   290.6598      -47.91978       41.756502      166.25065     -0.00022766836
  12840000   300.69426     -45.679619      38.670022      171.35658      0.00089958148
  12850000   307.88238     -47.379057      27.351054      162.60204      0.0026574724 
  12860000   325.48708     -33.342993      28.100218      187.83004      0.0019698499 
  12870000   318.66627     -29.970891      37.657529      196.71348      0.0025696593 
  12880000   285.02743     -27.346171      31.944712      173.67145      0.0011970843 
  12890000   308.03356     -34.543486      43.34411       191.52034      0.00075182611
  12900000   289.71632     -37.005163      33.061645      167.91075      0.0023840286 
  12910000   299.55554     -43.583558      40.289746      174.3969       0.0015566681 
  12920000   275.90899     -34.559072      47.977913      177.08286     -0.00077579624
  12930000   341.97079     -35.727929      40.260077      207.38279      0.0026187398 
  12940000   315.35256     -34.496627      33.393219      185.9578       0.0019245456 
  12950000   301.49505     -39.215756      33.895786      173.52122      0.0018507483 
  12960000   305.5756      -38.734788      46.23689       188.7638      -0.00027151475
  12970000   300.79314     -42.879768      37.709075      173.25415      0.00076256376
  12980000   253.43856     -41.678792      37.474045      146.13024     -0.0010952323 
  12990000   316.80716     -44.239425      37.493191      181.17782      0.0013409956 
  13000000   294.17347     -36.803827      38.467954      176.1623       0.00094646903
  13010000   316.59579     -39.33181       39.28334       187.7502       0.0012934981 
  13020000   314.32336     -36.47804       45.671739      195.64441      0.0020952705 
  13030000   288.43263     -36.626615      40.237195      174.70339      0.00090804618
  13040000   324.48698     -37.694058      38.230679      193.0162      -0.00012776968
  13050000   306.20321     -33.464826      35.483272      183.65244      0.00094232176
  13060000   272.35095     -33.986753      34.210056      161.77677      0.0022525379 
  13070000   291.99729     -35.4102        43.5696        181.3667      -0.0010153718 
  13080000   272.31561     -38.437612      35.279211      158.3741       0.00011115761
  13090000   296.04405     -32.106733      36.036981      179.53801      0.0014023754 
  13100000   302.00919     -26.86944       30.455052      182.73179      0.0029966186 
  13110000   309.13909     -25.6267        42.288805      200.0376       0.0001497572 
  13120000   313.10909     -28.875922      38.952207      195.80671      0.0021552498 
  13130000   319.78991     -30.027579      35.689105      195.35489      0.0028980928 
  13140000   276.43197     -37.300851      35.304282      161.97768      0.00072112046
  13150000   289.26891     -39.366514      40.650976      172.87334      0.00015385559
  13160000   294.45911     -38.14154       34.470601      170.99667      0.0010891935 
  13170000   308.29461     -35.438645      36.393822      183.82974      0.0015483713 
  13180000   332.598       -35.419177      53.647734      215.51944     -0.00028697615
  13190000   321.39302     -35.55001       29.985427      185.07971      0.0031064728 
  13200000   307.06289     -38.340361      42.440881      186.24446      0.0015328271 
  13210000   304.53634     -41.56532       39.819565      178.89948      0.00064834664
  13220000   267.02045     -37.130014      33.870181      155.13168      0.0020424477 
  13230000   290.5486      -37.15279       33.701988      168.89717      0.0023573749 
  13240000   315.50039     -41.319425      37.685788      183.51526      0.0023113879 
  13250000   305.66731     -44.808513      31.45402       167.96161      0.0027031346 
  13260000   268.09222     -38.41832       46.745463      167.35441     -0.0022617236 
  13270000   296.53115     -47.322454      41.417772      169.99202      0.0017117323 
  13280000   278.5121      -36.990228      40.807183      169.02509     -0.00086893951
  13290000   296.28625     -37.334874      42.511892      180.92845      0.001688591  
  13300000   275.89117     -38.68577       33.111065      158.07875      0.001109625  
  13310000   267.26656     -33.799079      39.177012      163.91543     -0.00030966194
  13320000   295.73689     -29.451036      42.66455       188.63908      0.0011684186 
  13330000   295.80289     -38.874858      27.428027      164.01788      0.0026254809 
  13340000   321.78528     -37.432328      42.912027      196.35668      0.001789872  
  13350000   338.19568     -44.496352      38.536301      194.65127      0.0030639896 
  13360000   315.35831     -44.505335      36.852079      179.41137      0.0030851718 
  13370000   277.18097     -45.596147      33.626118      152.44851      0.00099113792
  13380000   286.08665     -40.796819      29.864602      158.76901      0.0022296601 
  13390000   307.38913     -39.91874       31.57755       173.99626      0.0017453661 
  13400000   291.03982     -45.678572      35.591176      162.55195      0.00054737984
  13410000   286.36549     -44.539138      33.342821      158.67031      8.2968992e-05
  13420000   290.61584     -44.212566      34.916806      163.09209      0.0034986672 
  13430000   299.86003     -48.550734      33.190517      162.51112      0.0018225289 
  13440000   297.65802     -46.394042      42.907787      173.07889     -0.00043069255
  13450000   293.26566     -43.327075      45.206238      175.83884      0.00056717925
  13460000   286.01372     -44.277337      40.136246      165.51687     -0.00065323876
  13470000   335.78847     -42.052535      35.482304      192.61318      0.0024057522 
  13480000   269.68953     -34.831525      30.563305      155.70654     -0.00032702333
  13490000   301.59425     -42.183721      39.019413      175.73573      0.001900471  
  13500000   286.10388     -48.318988      37.300283      158.69274      0.00010173532
  13510000   333.52155     -50.067396      43.747692      191.51901      0.0014199155 
  13520000   286.65085     -46.648488      28.493724      151.88113      0.0023842965 
  13530000   289.12637     -45.821722      33.82176       159.50436      0.00014545789
  13540000   290.9503      -48.639343      39.150136      163.09704      0.0026769807 
  13550000   269.68656     -51.984116      35.923245      143.91213     -0.00052856079
  13560000   292.7164      -52.0888        43.273866      164.81893     -0.00066715024
  13570000   309.26685     -47.779787      36.057318      171.72881      0.00090529033
  13580000   335.20794     -45.835422      44.358049      197.36167     -0.00088743335
  13590000   293.06356     -43.809355      40.382488      170.41292      0.00023082485
  13600000   283.49383     -53.075385      40.775759      155.86359     -4.6270121e-05
  13610000   313.78053     -45.832306      35.033525      175.32993      0.0026187717 
  13620000   290.40434     -47.052171      30.433445      155.64367      0.0011038264 
  13630000   294.36184     -45.27741       39.527856      168.86035      0.0017319221 
  13640000   272.94322     -38.548932      33.452515      156.80837      0.00077075868
  13650000   295.40905     -42.799282      42.434871      174.86669      0.0011824666 
  13660000   291.39679     -38.402531      49.196095      183.64466     -0.0009305806 
  13670000   287.10764     -44.57837       36.040741      161.76923      0.0023558327 
  13680000   319.40003     -47.402368      30.843941      172.90367      0.0021276519 
  13690000   304.93547     -46.188714      45.003184      179.69646      0.0013633282 
  13700000   272.60146     -41.718         45.359067      165.34313     -0.00014488431
  13710000   303.86294     -42.599741      34.839296      172.48534      0.00028303675
  13720000   288.13618     -41.064949      34.485332      164.33735      0.00019712107
  13730000   292.83802     -35.526015      38.259237      176.43923      0.0007696871 
  13740000   284.7389      -33.925313      37.885663      172.86211      0.00177728   
  13750000   314.01885     -33.903255      47.359435      199.72626      0.002176345  
  13760000   273.79418     -46.593298      35.746527      151.56279     -0.00093815518
  13770000   299.41576     -47.360762      32.018518      162.26556      0.0011735367 
  13780000   280.67922     -57.118289      41.543435      150.91878     -0.00044468928
  13790000   338.62332     -53.073951      42.342547      190.13358      0.001547087  
  13800000   287.44365     -49.2849        40.172354      161.39362      0.00011110518
  13810000   300.70311     -49.394738      38.701136      167.67783      0.00071233783
  13820000   312.36732     -46.829505      42.140578      180.60149      4.7951758e-06
  13830000   283.15178     -44.616546      46.505142      169.84891     -0.0019442777 
  13840000   283.87165     -48.64554       40.538795      160.28058      0.0009267947 
  13850000   317.07633     -50.289024      43.700051      181.49474      0.00031348806
  13860000   313.69431     -49.340415      32.240845      168.978        0.003629149  
  13870000   281.05907     -47.871006      36.710196      155.55815      0.00019721365
  13880000   326.85042     -42.045925      36.168016      188.00362      0.0029042748 
  13890000   296.84686     -45.90245       45.345386      175.52691     -0.00047105785
  13900000   314.22854     -43.331504      45.173262      188.23622     -0.00017885314
  13910000   311.24081     -49.053823      36.057721      171.62609      0.00096861838
  13920000   272.29356     -48.657913      33.157488      146.01899      0.00042920396
  13930000   338.55859     -52.595217      36.654495      184.88587      0.0022128477 
  13940000   303.15381     -47.316069      36.56321       169.07228      0.00030418589
  13950000   304.40596     -48.618744      35.020561      166.96971      0.0013463753 
  13960000   313.5579      -52.718787      33.358829      166.63669      0.001921066  
  13970000   271.7366      -50.27476       35.620902      146.53518      0.0002729604 
  13980000   320.67862     -45.502035      37.766951      182.48544      0.0014833194 
  13990000   316.38299     -41.102911      29.644571      176.2141       0.0032426614 
  14000000   270.23317     -48.070219      33.289172      145.51619     -0.00035418598
  14010000   303.27171     -46.327004      40.0917        173.65977      0.00070209756
  14020000   296.52992     -40.651142      41.761097      177.00593      0.0011714804 
  14030000   279.77404     -49.359873      30.239866      146.83669      0.0019290949 
  14040000   318.01481     -52.213744      43.105532      179.53219     -0.0008004209 
  14050000   309.01055     -58.312886      38.514183      163.50054      0.00098472773
  14060000   292.80644     -59.026743      36.294219      150.95475      0.0012547192 
  14070000   308.65477     -49.789139      42.974276      176.27334      7.2430964e-05
  14080000   317.93064     -49.732322      33.697675      172.55583      0.0029402155 
  14090000   303.02138     -52.527139      34.900252      162.1197       0.001466297  
  14100000   301.16357     -41.946786      31.565454      168.26324      0.0017525241 
  14110000   286.30779     -41.691193      43.461986      171.60319     -0.00067652488
  14120000   303.50228     -47.434096      40.906901      173.50465      0.0014185082 
  14130000   309.85397     -50.846038      40.255613      173.20912      0.0016203145 
  14140000   277.85639     -48.119027      34.754353      151.45451      0.0015197631 
  14150000   290.76249     -46.443509      35.593701      161.62503      0.00080833241
  14160000   301.2161      -56.120417      30.715684      153.27099      0.0023611405 
  14170000   270.51417     -49.845344      33.141327      143.7599       0.00035304022
  14180000   278.81657     -43.869928      42.852228      164.37105     -0.00033639267
  14190000   330.35126     -46.44298       39.813563      189.32874      0.0014858303 
  14200000   307.26707     -54.026514      32.670448      160.90899      0.0024931482 
  14210000   294.14658     -54.735699      30.506726      150.25325      0.0024257721 
  14220000   342.30464     -41.966139      32.854654      193.93719      0.0022821822 
  14230000   294.47087     -42.729434      30.226677      162.17183      0.0028218158 
  14240000   294.01307     -44.421445      29.963787      159.94537      0.0023715788 
  14250000   312.30364     -44.06013       42.93442       184.12694      0.00076859304
  14260000   304.67882     -48.658081      30.276883      162.34855      0.00202001   
  14270000   314.42221     -50.355035      34.724081      170.87839      0.0013262461 
  14280000   316.20507     -55.978606      35.972334      167.56063      0.001331359  
  14290000   308.6829      -56.907112      32.151245      158.34903      0.0020485767 
  14300000   311.14014     -57.715984      42.68942       169.53592      0.00064265321
  14310000   287.00503     -54.586756      38.963661      154.62289      0.0006567184 
  14320000   278.74169     -52.603329      36.073801      148.8148       0.00044168314
  14330000   307.0798      -54.439615      39.901947      167.6163       0.00095601777
  14340000   281.28786     -54.557664      37.556141      149.85315      0.0018840849 
  14350000   279.45325     -50.633012      30.421483      145.55488      0.0012992615 
  14360000   306.41204     -50.216531      28.815887      160.35722      0.0024425534 
  14370000   347.76651     -58.737567      36.633671      184.18466      0.0015704722 
  14380000   302.70135     -46.383431      40.480272      173.65359      0.0002314039 
  14390000   313.03021     -45.060811      32.676741      173.29957      0.0020062812 
  14400000   284.37079     -52.32477       37.670693      154.02933      0.00079415915
  14410000   320.68083     -55.740368      39.934569      174.41604      0.0004738045 
  14420000   313.8473      -54.534686      37.574472      169.2081      -6.7025087e-05
  14430000   287.60761     -51.138096      31.545547      151.01088      0.0019907389 
  14440000   292.64863     -51.412934      49.238929      171.41966     -0.0003466822 
  14450000   295.38134     -54.727366      34.881996      155.36929      0.00056126625
  14460000   296.4438      -55.175495      32.625667      153.29506      0.0022281557 
  14470000   298.66762     -55.165828      29.672762      151.67095      0.0007100946 
  14480000   276.90328     -52.684285      35.765064      147.3346       0.00070210976
  14490000   321.7245      -49.251266      33.654502      175.24416      0.0014532207 
  14500000   303.98467     -55.717766      41.242273      165.8425      -8.7224538e-05
  14510000   320.31952     -52.184489      41.796616      179.61964      0.0014376911 
  14520000   308.52126     -54.132994      40.518191      169.3942       0.00087316256
  14530000   276.54458     -53.863985      43.894544      154.07161      0.0016098906 
  14540000   294.84467     -54.376111      51.739261      172.25946     -0.0002738981 
  14550000   317.39096     -62.360578      32.246564      158.15634      0.0014839293 
  14560000   304.77676     -56.349585      42.493007      166.93127     -0.00071051442
  14570000   304.6122      -57.597411      34.107033      157.19985      0.0018448148 
  14580000   275.13676     -53.677629      45.136236      154.66456     -0.0004846072 
  14590000   305.28509     -59.55308       37.546896      159.08319      0.00012373148
  14600000   290.7975      -57.528587      42.538689      157.50571     -0.0008015879 
  14610000   304.77969     -59.070213      38.949969      160.66934      0.0010164684 
  14620000   307.75402     -58.237347      32.057082      156.37363      0.0021368308 
  14630000   328.42083     -52.321045      34.481953      176.97397      0.001888845  
  14640000   293.19195     -56.278452      30.479884      148.11738      0.0017526052 
  14650000   324.45614     -59.361809      31.720843      164.82032      0.0034545956 
  14660000   317.7985      -58.967166      33.884015      163.42895      0.0023775845 
  14670000   312.48683     -63.946266      36.121225      157.53627      0.0025309639 
  14680000   288.63554     -61.21704       38.267096      148.26323      0.0013975558 
  14690000   294.58852     -50.072758      44.470147      169.14176     -0.00044865321
  14700000   313.16274     -50.226985      38.272225      173.80749      0.0019958845 
  14710000   328.57002     -47.829773      49.304506      196.37629     -0.00033071663
  14720000   295.97295     -53.040994      33.479487      156.00408      0.0021684009 
  14730000   306.03917     -57.192546      36.730831      161.07497      0.00029761326
  14740000   300.29311     -53.974057      38.359264      162.51344      0.0012305398 
  14750000   301.73737     -54.938962      32.364134      156.41011      0.0021213979 
  14760000   320.33434     -45.477345      35.393947      179.93291      0.0022660527 
  14770000   280.72106     -46.868899      38.169057      157.81861      0.0011740783 
  14780000   310.75363     -42.351236      38.608809      180.59078      0.00061876085
  14790000   321.02581     -42.977999      34.656734      182.10521      0.0017097868 
  14800000   307.01676     -38.003385      36.880047      180.99323      0.0006646655 
  14810000   321.77043     -38.101843      30.439118      183.20544      0.0031241111 
  14820000   315.9941      -40.436772      39.326577      186.33157      0.00068477144
  14830000   315.06882     -34.886401      37.058502      189.065        0.0013115122 
  14840000   269.78971     -43.300394      46.556563      163.29035     -0.0020851955 
  14850000   337.97087     -44.837224      38.012697      193.65344      0.00087050028
  14860000   299.30118     -48.853592      40.596988      169.28323      0.0012438504 
  14870000   305.80162     -49.301516      37.174932      169.26919      0.0013139384 
  14880000   329.58045     -41.93844       35.701216      189.2637       0.0012539841 
  14890000   298.36287     -46.36331       34.677164      165.2971       0.0021220759 
  14900000   313.47486     -39.613828      38.49234       184.82591      0.00039576778
  14910000   317.29026     -41.406173      28.878329      175.68278      0.0025503279 
  14920000   342.84292     -37.968696      33.423724      198.823        0.0036119187 
  14930000   287.21755     -31.615436      31.425225      170.18184      0.0027734107 
  14940000   286.57055     -36.293329      42.186943      175.88188     -4.4637359e-05
  14950000   297.92901     -40.104909      41.057104      177.67808      0.00059772382
  14960000   295.81465     -46.816105      39.052061      167.70764      0.0010108625 
  14970000   311.17647     -44.942198      37.302544      176.94438      0.0021969023 
  14980000   306.68681     -48.244367      47.90287       181.57935     -0.00040484188
  14990000   319.15069     -41.82288       30.361083      177.85239      0.002964197  
  15000000   262.61842     -42.189923      43.101758      156.69214     -0.00027050527
  15010000   334.07257     -37.631422      42.337931      202.87208      0.0008302032 
  15020000   311.33378     -41.880827      39.902202      182.69872      0.00058824382
  15030000   303.21108     -47.773915      40.688966      172.77417      0.0014778091 
  15040000   286.32661     -46.548307      39.197605      162.49286      0.00021562902
  15050000   291.33736     -41.456277      34.00119       165.36076      0.001370271  
  15060000   326.57777     -45.661665      40.691097      188.74923      0.00074749598
  15070000   293.56141     -46.750349      38.435987      165.82075     -5.0723039e-05
  15080000   286.30173     -42.830301      42.389338      169.38784      0.00061133023
  15090000   293.07468     -38.860631      29.251082      164.23684      0.00061336695
  15100000   296.23987     -40.437467      40.019286      175.30574     -4.3217021e-06
  15110000   296.50879     -41.078822      44.344939      179.14956     -0.0007157984 
  15120000   299.98666     -33.529018      31.348429      175.76586      0.0015085783 
  15130000   294.83517     -35.170469      39.413176      179.13339      0.0001735462 
  15140000   275.67858     -40.774501      37.003949      159.7568      -0.00079540522
  15150000   290.80997     -40.781347      23.981267      155.70293      0.002594591  
  15160000   352.11754     -45.32508       36.770875      200.3153       0.0031720186 
  15170000   273.84152     -49.430604      37.892324      150.89936      0.0012554333 
  15180000   270.96343     -43.777035      36.836179      153.78956      0.0020897884 
  15190000   324.51726     -38.251729      28.986866      183.23268      0.0041950311 
  15200000   300.34652     -38.097141      34.597402      174.66017      0.0011283916 
  15210000   310.59656     -40.091738      36.394186      180.54249      0.0018587514 
  15220000   279.06594     -42.008877      44.9645        168.49229      0.00089635942
  15230000   302.9543      -35.532985      32.048317      176.22213      0.0028897912 
  15240000   287.94938     -36.885268      40.48355       174.40444     -0.00069206889
  15250000   305.72182     -24.775179      34.952396      191.52565      0.0018914506 
  15260000   304.91831     -25.435258      39.099594      194.53615      0.002178695  
  15270000   329.75887     -28.878581      38.672504      205.40069      0.00095761488
  15280000   316.38834     -32.528637      35.990844      191.13782      0.0020341364 
  15290000   317.52968     -30.218846      34.547226      192.68101      0.0025525116 
  15300000   272.9094      -26.221677      25.548209      161.21126      0.0037238587 
  15310000   303.82917     -32.281384      40.00711       187.95147      0.0012266124 
  15320000   308.97246     -30.109395      41.377646      194.5449       0.00086318061
  15330000   280.6154      -30.246052      39.925425      176.13516     -9.8435991e-05
  15340000   334.91094     -27.718295      27.243456      198.18803      0.0041153924 
  15350000   300.94721     -29.262487      43.760637      193.01438      0.0010491478 
  15360000   306.81949     -23.285627      44.919169      203.6331       0.00093182674
  15370000   279.72696     -31.478002      35.03112       169.48189      0.0022435007 
  15380000   305.99311     -35.843641      29.937525      175.60324      0.0021423296 
  15390000   316.41206     -36.103411      28.184921      179.7712       0.0036180038 
  15400000   284.97613     -36.440504      41.354619      173.9566       0.0013887319 
  15410000   321.363       -30.249671      32.384346      192.76116      0.0032500428 
  15420000   295.87194     -35.703318      35.470455      175.27281      0.0011202784 
  15430000   293.15132     -44.774525      35.922277      165.03961      0.0014799796 
  15440000   286.00992     -30.536288      37.419333      176.53875      0.0030719446 
  15450000   252.42281     -40.904782      48.239706      157.06739     -0.0013873546 
  15460000   289.5626      -40.778811      38.058813      169.04309      0.0029339371 
  15470000   322.01861     -41.234047      34.246335      184.02767      0.0029572143 
  15480000   307.12745     -47.931119      40.389606      174.64072      0.0014129695 
  15490000   292.46251     -37.651029      33.860915      169.69315      0.0028203919 
  15500000   302.90241     -46.388674      39.851003      173.13834      0.0012081142 
  15510000   316.8352      -41.364916      37.968161      184.54393      0.00097448876
  15520000   295.30279     -41.69634       30.701699      164.17342      0.0044499074 
  15530000   282.28277     -40.222581      27.399237      154.62149      0.0025828531 
  15540000   281.46699     -40.035626      30.205132      157.13043      0.00083645971
  15550000   288.20289     -36.63125       39.359484      173.68477      0.0018105357 
  15560000   281.29626     -38.709593      33.871403      162.02146      0.0022396039 
  15570000   296.07118     -31.05721       36.846034      181.41268      0.0018833318 
  15580000   322.26895     -37.634295      38.057632      191.58722      0.002277352  
  15590000   275.29441     -28.26959       38.406918      173.4368       0.00068474351
  15600000   290.67307     -37.938613      45.054669      179.53786      0.00086753712
  15610000   309.7457      -43.000904      40.852514      181.58694      0.0029521288 
  15620000   280.77683     -37.163125      32.690948      162.07936      0.0011483423 
  15630000   309.39864     -33.150562      35.965528      186.34442      0.003271066  
  15640000   318.96901     -33.953759      34.331353      189.58401      0.0029075709 
  15650000   296.23189     -33.380383      39.801626      182.14043     -0.00043830409
  15660000   292.80705     -41.54315       37.451958      169.59645      0.00060927858
  15670000   291.62053     -41.941432      40.597059      171.63944     -0.00065248687
  15680000   305.74661     -43.146843      36.362776      174.57907      0.00089082242
  15690000   287.20684     -42.366292      36.093598      164.09301      0.00090667054
  15700000   328.45963     -47.860824      33.590666      180.56592      0.0018862454 
  15710000   276.31633     -47.126486      44.348147      161.12731      0.00051472676
  15720000   318.57531     -44.71082       41.257052      185.51911      0.0030356531 
  15730000   297.48734     -40.102403      34.464506      170.826        0.0012598965 
  15740000   299.46035     -37.479382      35.501802      175.65667      0.0018591599 
  15750000   294.32702     -45.90548       29.591973      158.27575      0.0034747885 
  15760000   345.45014     -43.61838       42.135466      203.43161      0.0022003839 
  15770000   301.08258     -37.506724      38.49647       179.58627      0.0019658836 
  15780000   278.41402     -39.016794      32.535117      158.66828      0.0010408952 
  15790000   274.55151     -35.913163      30.116752      157.06238      0.0017768487 
  15800000   294.85401     -41.653414      37.543111      170.79155      0.000673902  
  15810000   292.28453     -44.449247      31.143685      160.07212      0.0025452171 
  15820000   297.61463     -43.803652      34.906317      167.64207      0.0022117915 
  15830000   320.76937     -41.929988      50.494219      198.83859      0.00068686848
  15840000   312.63845     -45.586957      43.536231      183.40053      0.00092956496
  15850000   278.96697     -39.692183      39.432436      165.21821      0.00049387587
  15860000   301.49901     -36.954176      43.739738      185.62911      0.00081695013
  15870000   293.9034      -43.939226      44.744323      175.14307     -0.00039477265
  15880000   307.28778     -47.217962      33.850419      168.90979      0.001852358  
  15890000   286.79946     -47.021927      35.585977      158.6881       0.0017051663 
  15900000   308.65406     -42.048754      41.204261      182.24329      0.00015818528
  15910000   287.44043     -43.042755      42.699839      170.16134      0.0005707    
  15920000   319.35014     -46.189643      40.082778      183.32563      0.0021707418 
  15930000   308.04732     -39.588354      39.276985      182.41651      0.0021620683 
  15940000   333.8552      -37.833881      33.872886      194.07563      0.0030491864 
  15950000   282.28726     -44.76526       35.49558       158.17781      7.2513908e-05
  15960000   297.49308     -43.216376      31.243109      164.49404      0.00037156478
  15970000   287.27081     -42.369536      27.075198      155.10931      0.0022999807 
  15980000   296.31706     -40.90152       31.246025      166.11421      0.002383888  
  15990000   266.95428     -33.353287      42.007538      167.00651     -0.0010116301 
  16000000   302.62161     -31.889746      37.74266       185.36237      0.0015098869 
  16010000   288.28203     -37.475784      32.398488      165.92618      0.0019241696 
  16020000   305.8418      -42.673062      34.455618      173.20216      0.001533154  
  16030000   305.01289     -40.219652      36.812461      177.52072      0.0029424481 
  16040000   330.18765     -32.472875      38.523284      201.91151      0.0028614789 
  16050000   316.66069     -35.839411      38.301083      190.29884      0.0031077841 
  16060000   314.03961     -38.430502      33.930254      181.78215      0.001502115  
  16070000   280.27633     -28.357864      28.289096      166.18588      0.0010041335 
  16080000   301.16011     -42.93341       36.094618      171.80372      0.0028584374 
  16090000   295.4167      -48.982983      30.780218      157.03287      0.0024999962 
  16100000   312.85719     -42.465299      32.00624       175.12194      0.0020705064 
  16110000   301.29581     -42.782854      38.471949      174.41211      0.0009536758 
  16120000   287.05303     -39.548603      40.178403      170.90426     -0.00047853026
  16130000   321.46048     -34.446027      33.440546      189.67883      0.0021667434 
  16140000   293.24713     -31.007993      38.498445      181.43914      0.0021609749 
  16150000   276.56039     -35.456632      36.468901      165.06269      0.00052386063
  16160000   321.37252     -35.003559      30.94039       186.56897      0.0034023472 
  16170000   289.58857     -35.584606      47.04821       183.2421       0.00019180587
  16180000   288.86651     -33.812163      33.529936      171.06796      8.1692705e-05
  16190000   307.42636     -31.36029       30.283317      181.28256      0.0013287893 
  16200000   332.43167     -33.74995       36.949939      200.39221      0.0014662537 
  16210000   302.43065     -39.123444      40.748819      181.02155      0.0030043989 
  16220000   299.1323      -39.084521      41.959753      180.31489      0.00099992193
  16230000   325.67645     -47.929038      41.962886      187.21899      0.002380222  
  16240000   340.59349     -46.633354      44.028274      199.42857      0.0028507082 
  16250000   289.61045     -42.093318      30.039692      159.73785      0.0027330052 
  16260000   306.35069     -36.700309      28.891958      173.91312      0.0024642855 
  16270000   290.14926     -42.482651      44.488897      174.11733     -3.8040701e-05
  16280000   282.53166     -37.533938      35.23584       165.29437      0.0018073854 
  16290000   287.97878     -31.092319      37.889538      177.62081      0.00062166142
  16300000   275.72702     -34.792882      38.60956       167.37276      0.00056103171
  16310000   288.2988      -37.778698      38.951622      172.18635     -2.728423e-05 
  16320000   269.05079     -39.661681      28.535654      148.46984      0.0020425008 
  16330000   297.9412      -37.671801      32.375464      171.43678      0.0021022361 
  16340000   286.1334      -41.832453      45.731052      173.62755      5.7519472e-05
  16350000   284.06452     -41.413476      38.936219      166.02447     -0.00049657951
  16360000   282.69661     -40.01714       27.814471      155.48764      0.0019495754 
  16370000   299.10079     -37.292332      26.911651      167.04029      0.002467999  
  16380000   320.47716     -35.260122      33.859202      188.70011      0.0036250198 
  16390000   299.86089     -33.730451      30.308973      174.45037      0.0035510685 
  16400000   324.69481     -37.635578      33.553694      188.52097      0.0021013635 
  16410000   280.48575     -36.035756      36.418997      166.76211      0.00090230961
  16420000   324.44654     -40.94812       36.449544      187.95701      0.0027042139 
  16430000   295.0177      -38.490216      40.699377      177.20811      0.00059579708
  16440000   318.285       -45.306883      36.568079      180.06187      0.0020084601 
  16450000   307.83735     -40.902052      33.458288      175.15957      0.0041806661 
  16460000   306.0477      -46.953041      28.23439       162.82309      0.0026466611 
  16470000   289.30586     -42.683242      31.484596      160.41215      0.0020885938 
  16480000   303.46679     -43.645775      42.077878      178.4429       0.0017529951 
  16490000   331.82524     -43.698312      35.836333      188.97052      0.0031409227 
  16500000   318.85261     -39.440459      36.596547      186.29346      0.0031512952 
  16510000   265.45137     -45.583182      29.546943      141.42452      0.0013443471 
  16520000   292.80538     -31.009257      29.41868       172.09607      0.0019907393 
  16530000   332.20327     -33.602657      36.465192      199.91927      0.0026453455 
  16540000   321.68432     -38.803843      29.642065      181.65531      0.0026280632 
  16550000   321.2045      -33.284908      30.511536      187.7591       0.0041402498 
  16560000   295.33883     -36.478619      28.32229       167.03311      0.0019188381 
  16570000   328.80586     -36.904083      29.239463      187.37684      0.0026321826 
  16580000   309.47161     -34.084359      31.139482      180.62787      0.0032684905 
  16590000   285.79699     -37.057244      31.351047      163.8232       0.0013534044 
  16600000   281.55696     -34.253552      36.102544      168.86329      0.0005438781 
  16610000   332.16174     -38.60402       33.687803      192.11588      0.0024838401 
  16620000   305.17916     -40.366591      40.585668      181.24562      0.00095923343
  16630000   308.83666     -40.337499      40.819502      183.67811      0.0013502007 
  16640000   291.74776     -36.167176      34.839991      171.7321       0.0019746575 
  16650000   290.33775     -40.915495      40.61386       171.92126     -0.00081016838
  16660000   298.41984     -36.013458      43.385701      184.38928     -0.00019037573
  16670000   300.76667     -39.730091      48.765224      187.44427     -0.00097525999
  16680000   281.899       -40.229398      37.485992      164.47378     -0.00013089432
  16690000   297.92271     -33.99059       28.004335      170.7359       0.0039770225 
  16700000   337.52448     -31.172939      29.502939      198.54318      0.0035700233 
  16710000   305.29873     -32.522599      41.397278      189.97214      0.0026098614 
  16720000   291.99554     -36.187311      27.242997      164.26195      0.0028638887 
  16730000   312.70157     -37.170301      37.472974      185.79137      0.00014206892
  16740000   295.66427     -42.684684      29.031416      161.72922      0.0035176672 
  16750000   295.90545     -42.681303      37.574905      170.41915      0.001150428  
  16760000   298.63823     -45.622084      37.483229      169.00773      0.00055237909
  16770000   310.63076     -48.79155       28.445361      163.91414      0.002195372  
  16780000   313.87704     -50.214904      33.807561      169.77862      0.0026217051 
  16790000   279.79299     -49.841152      34.820637      150.94742      0.0024708474 
  16800000   334.9441      -50.262808      29.698456      178.11819      0.0028440713 
  16810000   317.47979     -47.289093      35.524675      176.55862      0.0043780173 
  16820000   279.50787     -49.89581       35.959566      151.86257      0.00081601269
  16830000   304.47702     -44.261883      39.676025      176.02419      0.00015736536
  16840000   324.54494     -45.221046      38.223595      185.51651      0.003223414  
  16850000   291.44786     -46.584093      32.67059       158.96789      0.0019826387 
  16860000   301.86227     -38.342371      36.315457      177.03211      0.0020555419 
  16870000   313.77168     -44.048556      28.040467      170.11537      0.0029254529 
  16880000   312.85031     -52.883107      27.496869      160.19068      0.0029875288 
  16890000   283.83707     -48.80268       29.639848      149.20398      0.000917865  
  16900000   307.80737     -56.120869      36.518633      162.98331      0.0021114118 
  16910000   310.68007     -60.427273      36.280789      160.1431       0.0021645787 
  16920000   284.15305     -59.535246      33.180503      142.19951      0.00222409   
  16930000   276.70592     -60.385197      36.183125      139.93468      0.00051652687
  16940000   300.7942      -54.492338      42.638727      166.57185     -0.00043727072
  16950000   270.18141     -58.092247      36.898718      139.07301      0.00063168127
  16960000   299.77083     -57.305765      41.544657      162.05731      0.00032427629
  16970000   323.39541     -55.687845      31.747626      167.89186      0.0016248656 
  16980000   267.04714     -55.649039      35.022347      137.78065      3.8950479e-05
  16990000   330.42145     -55.185949      39.621498      180.43534      0.00072974325
  17000000   278.09399     -52.235008      28.748291      141.47341      0.0034807353 
  17010000   272.97178     -42.667916      30.597179      149.85099      0.0022489776 
  17020000   296.40998     -41.148928      43.604151      178.28005      0.00049567384
  17030000   315.00324     -38.316105      41.382504      189.9204       0.00012435453
  17040000   314.41446     -42.807806      33.231211      176.92815      0.0023209577 
  17050000   265.1408      -47.904086      34.187904      143.56036      0.0018571059 
  17060000   316.67566     -44.801711      38.455925      181.50026      0.0013088827 
  17070000   287.19815     -51.985288      38.27934       156.6546       0.0014201282 
  17080000   276.95046     -50.119942      31.189701      145.35156      0.0012295875 
  17090000   298.10448     -51.89294       31.634292      156.57132      0.0019715822 
  17100000   303.97835     -51.425804      29.776301      158.66474      0.0032532985 
  17110000   305.81017     -50.285187      33.948665      165.06432      0.0010552738 
  17120000   304.65956     -43.310771      28.636428      166.04398      0.0026968205 
  17130000   329.38946     -46.806426      40.852346      189.43356      0.0013413821 
  17140000   277.54864     -46.386197      33.932177      152.18261      0.0018151495 
  17150000   273.43577     -45.247807      33.099306      150.04846      0.00149956   
  17160000   292.54419     -41.835539      38.081418      169.77759      0.0012938464 
  17170000   291.95348     -49.558483      35.091358      158.71419      0.00021825797
  17180000   308.24537     -44.724398      40.295623      178.41658      0.0017609693 
  17190000   325.86226     -47.001019      28.818875      175.11322      0.0044498768 
  17200000   310.57937     -42.577087      39.557935      181.2107       0.0017089513 
  17210000   315.39955     -37.098334      38.817801      188.80855      0.0022416399 
  17220000   309.20782     -31.289237      44.930272      197.0573       0.0023356143 
  17230000   313.90262     -35.646258      38.853249      189.40812      0.0018260137 
  17240000   300.50839     -35.509521      37.939643      180.68605      0.0023428525 
  17250000   307.33033     -41.840625      40.050376      180.51232      0.00080563797
  17260000   289.8781      -45.158652      35.462251      162.25384      0.001111138  
  17270000   312.48059     -45.867969      30.857035      170.34668      0.00340568   
  17280000   259.49841     -42.176857      29.26479       141.01751      0.0034058234 
  17290000   302.53819     -44.37143       35.609653      170.69819      0.0018434587 
  17300000   297.46118     -36.755595      42.313733      182.00652      0.00080034656
  17310000   328.62317     -33.070962      39.439311      201.30144      0.0023839962 
  17320000   326.1338      -35.913391      38.47129       196.01434      0.0016801217 
  17330000   291.05865     -32.291038      31.764345      172.12383      0.0036596489 
  17340000   291.07017     -39.478729      32.622013      165.80063      0.0023266153 
  17350000   311.94363     -31.221928      42.336196      196.15337      0.00025993556
  17360000   303.69268     -37.102555      28.823728      171.86596      0.0031225746 
  17370000   300.18897     -31.414888      39.701584      186.35315      0.0013316723 
  17380000   335.72476     -31.450692      36.750632      204.44555      0.0022864824 
  17390000   334.05283     -37.437423      32.08966       192.80609      0.0048571295 
  17400000   324.15031     -38.44715       31.190814      185.02353      0.0024394174 
  17410000   320.29499     -37.364968      34.492992      187.12099      0.0021768698 
  17420000   283.16428     -41.160543      34.221076      161.02826      0.0028136279 
  17430000   289.6619      -31.385895      37.806712      178.24281      0.0022950753 
  17440000   300.64392     -34.76177       31.109644      174.6842       0.0029736769 
  17450000   277.40701     -36.646557      38.699543      166.60561      0.00092588637
  17460000   263.69019     -32.845087      39.864116      163.43509     -0.00042377494
  17470000   290.58761     -30.030047      29.377658      171.71872      0.0010470141 
  17480000   311.32864     -32.195954      45.659816      198.13816      0.00018499064
  17490000   325.13908     -28.787269      33.434814      197.51394      0.0033214256 
  17500000   308.49014     -36.071787      25.489494      172.40826      0.0037583772 
  17510000   292.12729     -36.85258       41.393582      177.82542     -0.00018395822
  17520000   313.5801      -36.139103      40.730165      190.60088      0.00085685827
  17530000   312.50812     -29.123996      33.547905      189.79785      0.002644735  
  17540000   272.13792     -27.411378      37.999896      172.01562     -0.0003832427 
  17550000   314.39953     -33.595546      28.867274      181.76762      0.0024864795 
  17560000   278.67781     -37.853698      30.01826       157.471        0.0019530235 
  17570000   304.1481      -29.735792      38.469306      189.14845      0.0010033295 
  17580000   329.11682     -29.450669      36.651407      202.42665      0.0020142377 
  17590000   272.40969     -29.408727      40.806361      172.98594      0.00074686679
  17600000   285.84895     -35.377876      29.417945      163.60029      0.0026737704 
  17610000   302.57582     -36.8005        34.779317      177.46111      0.0025617374 
  17620000   310.36601     -29.380077      33.395913      188.11912      0.0020295168 
  17630000   317.0005      -39.01677       39.522848      188.54482      0.0010883394 
  17640000   298.23831     -37.252712      47.003239      186.65988     -0.00043685524
  17650000   293.41082     -45.788883      35.179015      163.43591      0.0014751093 
  17660000   322.82878     -46.580089      34.428902      179.34478      0.0026946408 
  17670000   339.0203      -48.430757      28.935347      181.60506      0.0038270752 
  17680000   321.74397     -45.603094      42.294649      187.54403      0.0012027976 
  17690000   284.18696     -43.263808      40.084616      165.39517      0.00047808875
  17700000   309.0643      -44.605803      41.646412      180.37174      0.0012475536 
  17710000   270.45732     -39.620599      37.431097      158.24069      0.0013796836 
  17720000   319.77809     -41.762061      37.151832      185.07612      0.001971651  
  17730000   314.16013     -48.776132      31.86212       169.43987      0.0023366535 
  17740000   307.2862      -47.989616      42.16598       176.45276     -0.00019443684
  17750000   324.30022     -42.701341      34.790543      184.458        0.0027656816 
  17760000   334.5718      -41.12093       43.444801      200.78558      0.0029305021 
  17770000   322.72758     -29.913105      32.665606      194.18843      0.0032582216 
  17780000   289.95578     -33.123366      31.103319      169.97627      0.0015038348 
  17790000   295.66354     -38.578371      28.492625      165.29631      0.0038805954 
  17800000   314.76009     -28.996795      36.765443      194.47842      0.0016687385 
  17810000   267.56941     -24.428329      40.157523      174.44634     -0.00013767309
  17820000   347.74289     -33.977574      38.85          211.14697      0.0011679015 
  17830000   288.20614     -31.869681      29.59948       168.68826      0.0034381271 
  17840000   315.26563     -29.230735      47.250937      205.02985      8.1960853e-05
  17850000   305.01147     -33.54516       33.928688      181.3106       0.0018052296 
  17860000   293.77587     -37.280125      40.860452      177.84265      0.00038252798
  17870000   298.78669     -35.707603      36.390762      177.91781      0.0021289061 
  17880000   315.86994     -31.238439      35.854688      191.98436      0.0013823002 
  17890000   322.90184     -35.915962      31.195895      186.81924      0.0031628473 
  17900000   265.38317     -35.362011      34.132568      156.19087      0.0026631338 
  17910000   303.33226     -34.658201      32.71553       177.98832      0.0030027698 
  17920000   289.70472     -40.42667       34.172497      165.59322      0.0018090825 
  17930000   321.93288     -39.838388      48.070982      199.19712     -0.00081419273
  17940000   267.13378     -34.415287      38.449802      162.49325      0.0012959893 
  17950000   283.06695     -38.254261      36.278525      165.93426      0.00074946084
  17960000   273.2773      -36.996959      41.339968      166.44596     -0.00056810758
  17970000   319.35072     -36.328165      41.175984      194.28066      0.0025725001 
  17980000   311.87753     -28.309958      42.987822      199.67775      0.0013271944 
  17990000   273.30129     -24.378799      45.434391      183.17278     -0.00064962322
  18000000   317.23575     -28.503088      44.354605      204.0298      -0.00058159387
  18010000   325.81587     -27.018685      43.436242      209.6854       0.0015582676 
  18020000   307.17771     -26.637989      44.823244      200.3973       0.00083888688
  18030000   294.51485     -32.996387      37.800301      179.50459      0.0015207287 
  18040000   303.92645     -29.76566       43.100967      193.61876      0.00014602796
  18050000   293.97892     -29.677573      45.517359      190.22255     -0.00092325865
  18060000   295.34024     -31.138132      42.68228       186.73442      0.0021407707 
  18070000   308.28492     -31.450259      36.349391      187.76795      0.0014201196 
  18080000   286.49023     -32.539285      40.042859      177.44419      0.00070984788
  18090000   334.40802     -28.576128      45.547049      215.33547      0.0013108686 
  18100000   264.57984     -26.725307      35.143397      165.36188     -0.00039823946
  18110000   314.19824     -27.537005      37.724737      196.56422      0.0019240369 
  18120000   279.02388     -24.767242      39.790158      180.53463     -0.00032426138
  18130000   326.19557     -29.457243      37.155131      201.19097      0.003136708  
  18140000   293.14484     -26.27472       40.914421      188.52771      0.00056618358
  18150000   286.06349     -22.072971      41.724261      189.33877      0.00098801747
  18160000   300.49757     -23.792388      37.95146       192.40858      0.0017800185 
  18170000   290.85512     -28.02211       39.41066       183.91834      0.00091971088
  18180000   291.04075     -31.964604      38.848336      179.52363      0.0013895239 
  18190000   292.75916     -25.352613      40.203792      188.51041      0.0013253551 
  18200000   275.92288     -33.228365      45.605343      176.04924      0.00032370318
  18210000   295.08726     -33.181296      30.476269      172.33519      0.0023201576 
  18220000   294.51842     -38.513538      37.373389      173.56264      0.0030415438 
  18230000   325.5059      -35.370561      33.296174      191.0096       0.0038206537 
  18240000   289.34477     -39.630326      38.49108       170.49463      0.0013015405 
  18250000   277.76295     -36.579238      38.989963      167.17449      0.00047343965
  18260000   320.82786     -29.426293      34.948222      195.83098      0.0037694035 
  18270000   270.61634     -34.014438      45.03534       171.54543     -0.0007816698 
  18280000   298.67765     -34.704486      37.437701      179.90318      0.0021081617 
  18290000   285.46789     -28.390413      40.668022      181.6118       0.0012263485 
  18300000   323.00112     -26.979051      29.657581      194.27672      0.003561671  
  18310000   314.56359     -39.926779      29.685674      176.3521       0.004261962  
  18320000   271.97559     -31.441558      34.399366      164.28861      0.00039855203
  18330000   288.65287     -32.723957      42.248807      180.7483       0.00081486009
  18340000   314.51438     -30.952073      34.363162      189.97511      0.0048386429 
  18350000   306.957       -43.262141      37.226804      176.04578      0.00030208043
  18360000   280.33092     -39.730203      35.690273      162.2471       0.0002633839 
  18370000   290.06283     -41.586094      39.286084      169.7598       0.00027263295
  18380000   312.21399     -41.606647      41.622341      185.21516      0.0033902387 
  18390000   276.45771     -48.105641      39.135723      155.0196       0.0018222853 
  18400000   281.10722     -44.494826      31.189041      153.44173      0.0015091186 
  18410000   311.3289      -39.119198      31.206896      176.76215      0.0025151631 
  18420000   278.0825      -48.560655      40.641297      157.03395     -1.634335e-06 
  18430000   336.33239     -49.335264      43.333708      193.50449      0.001032725  
  18440000   323.23269     -37.272458      40.746282      195.20938      0.0025199603 
  18450000   306.02173     -42.936643      33.342009      171.9317       0.0014472269 
  18460000   324.59796     -33.600377      28.12676       187.07179      0.0040616951 
  18470000   294.47459     -35.657276      41.278823      180.29834      0.0011838294 
  18480000   302.26247     -31.147931      41.766606      189.91509      0.0033839011 
  18490000   292.47444     -24.899524      32.474798      181.06561      0.0025759692 
  18500000   304.27756     -29.627353      41.23095       192.09533      0.00073787299
  18510000   299.73609     -32.378626      35.464915      180.8841       0.0021020548 
  18520000   315.62583     -33.327906      32.877712      186.77312      0.0021715462 
  18530000   316.51796     -34.53825       35.047518      188.26177      0.0024383002 
  18540000   318.37717     -29.834085      52.974859      211.99612      0.0006414239 
  18550000   286.56254     -41.548908      42.993746      171.42835      0.00074078804
  18560000   273.35434     -33.65131       43.381181      171.87853      0.00027503631
  18570000   299.6055      -39.366475      36.153053      174.50693      0.0012232493 
  18580000   272.31721     -41.554264      42.362688      162.34187      0.00029081521
  18590000   305.06164     -38.487956      42.103313      184.57219     -0.00014395632
  18600000   294.58839     -44.290376      30.908476      161.3624       0.0027721881 
  18610000   296.53298     -37.972122      32.059436      169.9851       0.0017867299 
  18620000   292.97268     -46.254126      35.405311      162.93707      0.0010140168 
  18630000   292.7362      -55.149047      32.991627      151.48819      0.0018362118 
  18640000   299.89889     -51.946793      34.149824      160.09741      0.0030469304 
  18650000   307.75539     -47.451845      36.711587      171.81445      2.6001836e-05
  18660000   293.6495      -49.457132      36.849376      161.57961      0.00022853352
  18670000   296.30394     -45.809094      32.109468      162.0623       0.0019070236 
  18680000   321.20113     -43.956985      30.381875      176.95536      0.001730873  
  18690000   321.49253     -43.74906       31.498657      178.45292      0.0027506279 
  18700000   295.79783     -40.469156      29.386384      164.37894      0.0017686929 
  18710000   291.98317     -41.844817      34.051865      165.40598      0.0023247284 
  18720000   290.61134     -38.105785      39.07664       173.35604      0.00036271464
  18730000   298.19028     -40.238142      43.439979      180.08271     -0.0010724821 
  18740000   303.26215     -37.234014      33.882872      176.53826      0.00098018524
  18750000   283.49066     -42.154604      40.798722      166.80545      0.0023272558 
  18760000   290.65967     -34.209562      33.475549      171.67984      0.0011445926 
  18770000   316.44947     -41.325365      37.609922      183.99643      0.0014310867 
  18780000   322.19922     -43.18362       43.418484      191.35739      0.0027074652 
  18790000   293.5694      -44.481213      44.360848      174.01949     -0.00080009444
  18800000   320.49351     -43.111779      36.49404       183.49299      0.0026902074 
  18810000   296.76044     -48.770028      42.480295      169.74298      0.001128175  
  18820000   323.04286     -46.470441      36.894654      182.04716      0.0022328901 
  18830000   301.31652     -37.094444      26.852452      168.4933       0.0040866684 
  18840000   294.63178     -33.420391      39.210483      180.56012      0.00028564306
  18850000   301.98131     -37.102971      44.885075      186.91174     -0.00034985221
  18860000   286.48383     -29.827506      37.420546      177.52986      0.0018526262 
  18870000   276.18229     -36.824822      35.031878      162.03319      0.0008626452 
  18880000   298.45231     -43.18022       35.422276      169.27835      0.0013460443 
  18890000   319.34362     -50.952479      43.406575      181.88273     -0.00018049417
  18900000   297.01444     -45.318109      42.857347      173.72262      0.0018130973 
  18910000   321.38923     -40.350186      38.896288      189.18815      0.0016872493 
  18920000   317.20259     -45.847975      36.088764      178.3994       0.0011778398 
  18930000   278.59758     -48.062391      32.744667      149.94112      0.0031718681 
  18940000   286.05995     -49.066953      28.532204      149.15063      0.0031658852 
  18950000   320.85897     -43.933825      32.871507      179.26519      0.0020892206 
  18960000   282.46435     -41.764229      36.546933      162.33525      0.0018724851 
  18970000   300.85127     -39.839786      37.385485      176.00501      0.002101781  
  18980000   287.42622     -43.624001      43.571393      170.44322      0.0019019051 
  18990000   288.98114     -47.70057       32.252729      155.97034      0.00059303152
  19000000   296.54199     -42.177434      31.314722      165.04042      0.0014613712 
  19010000   310.61566     -39.190373      42.09976       187.16075      0.0015929401 
  19020000   307.48519     -40.092687      30.053339      172.35508      0.0022551038 
  19030000   310.32997     -41.25771       28.979313      171.80351      0.0023832341 
  19040000   298.13298     -40.664411      32.078139      168.26061      0.0013844876 
  19050000   286.75489     -40.926562      47.979794      177.15084     -0.00050464854
  19060000   264.06463     -42.272744      37.00133       151.36676      0.0016828226 
  19070000   291.91141     -49.241633      35.997939      159.91267      0.0022530744 
  19080000   345.21373     -41.46651       39.147884      202.45567      0.0025050528 
  19090000   315.1102      -37.850367      32.872971      181.94005      0.0021650579 
  19100000   282.5275      -33.567178      36.420203      170.44303      0.0033117726 
  19110000   340.70596     -39.455019      39.653679      202.29903      0.0036200333 
  19120000   310.53793     -45.44755       32.990006      171.74772      0.0015044653 
  19130000   302.32027     -47.085533      38.421972      170.66714      0.0011913174 
  19140000   283.73797     -44.819951      29.026758      152.51484      0.0032853965 
  19150000   312.10404     -45.825204      37.490094      176.79914      0.00084564228
  19160000   294.07225     -48.953485      33.082139      158.56678      0.0025769286 
  19170000   284.00523     -40.896145      31.328469      158.89889      0.001623614  
  19180000   299.5085      -46.359288      40.619162      171.92269      0.0010415331 
  19190000   320.44893     -45.554267      43.401039      187.93105      0.0010293596 
  19200000   294.42506     -46.784179      36.778448      164.64168      0.0007162644 
  19210000   308.02279     -45.634081      35.264271      172.34352      0.0021611724 
  19220000   300.18723     -40.444694      53.871326      191.49205      0.00068579786
  19230000   317.36814     -39.351462      45.076058      193.98141      0.0021001802 
  19240000   307.58333     -36.795967      49.030362      194.68705      0.00043889038
  19250000   314.75728     -32.021474      27.485195      182.17182      0.0045417437 
  19260000   263.73705     -31.489321      41.790796      166.74533     -9.7336437e-05
  19270000   280.76354     -29.628559      35.560519      172.47561      0.0010197685 
  19280000   303.09842     -37.643347      39.043908      181.19285      0.00055008204
  19290000   260.70203     -32.25376       32.719207      155.10899     -5.0136103e-05
  19300000   295.36348     -28.752013      38.396019      184.84807      0.0025409873 
  19310000   282.12192     -26.451226      29.241573      170.13977      0.0014215154 
  19320000   310.88015     -25.934011      43.300928      201.77518      0.00049719321
  19330000   295.37347     -24.585762      36.692706      187.31693      0.0014764315 
  19340000   270.13018     -25.334275      32.819293      167.72116      0.0024570493 
  19350000   328.92783     -29.833792      33.452943      198.73296      0.0035900555 
  19360000   286.18203     -31.864135      34.428819      172.32248      0.00049479866
  19370000   279.0902      -26.970335      34.183014      172.76374      0.00052379674
  19380000   320.38111     -22.664298      30.442705      197.82246      0.0039114827 
  19390000   317.75571     -31.345892      36.802827      193.94365      0.0031661009 
  19400000   285.06243     -35.353053      31.121586      164.86221      0.0018088956 
  19410000   311.65835     -38.009671      37.218919      184.07912      0.0013254768 
  19420000   316.40949     -37.507031      49.867305      200.04843      0.00081840814
  19430000   286.0108      -38.014325      39.547863      171.18977      0.0027748211 
  19440000   310.68297     -41.230616      35.01487       178.07555      0.0018246167 
  19450000   307.1367      -31.920934      34.103483      184.37026      0.0020050897 
  19460000   260.46273     -37.811239      31.921297      148.61165      0.0027485623 
  19470000   271.62045     -35.405295      46.89534       172.61019     -0.0011703507 
  19480000   301.97692     -26.154193      35.860957      188.8338       0.0029473314 
  19490000   295.93176     -26.699486      32.258831      181.1005       0.001430653  
  19500000   303.55695     -30.922013      43.377109      192.51937      0.00074510083
  19510000   293.76616     -27.222078      37.808048      184.84253      0.0018524705 
  19520000   278.57688     -25.626343      36.350101      175.97032      0.0023146696 
  19530000   313.27297     -27.523971      36.421691      194.72536      0.0014098168 
  19540000   297.60438     -31.119304      33.728788      179.14281      0.0023913319 
  19550000   306.88131     -24.886768      36.775197      193.92466      0.0018600161 
  19560000   315.47576     -31.379357      40.427436      196.18237      0.00035257338
  19570000   308.057       -22.795451      37.198031      197.1362       0.002506964  
  19580000   347.05598     -18.404787      41.784287      229.24658      0.0028061984 
  19590000   296.27497     -17.382305      32.876496      191.23893      0.0017132547 
  19600000   318.38263     -26.065096      33.338313      196.13181      0.0028884799 
  19610000   288.06879     -25.518529      31.677919      177.03638      0.0018228097 
  19620000   312.69379     -26.807569      40.911065      199.58757      0.00208421   
  19630000   328.97767     -17.990732      33.419374      210.57201      0.0037299618 
  19640000   298.70656     -15.813262      31.07525       192.4491       0.0049260019 
  19650000   341.01144     -18.769345      23.838426      207.35065      0.0050792111 
  19660000   294.80315     -18.624965      32.969322      189.21604      0.0042573824 
  19670000   295.2521      -19.506808      35.816481      191.44767      0.003280207  
  19680000   284.9098      -16.085334      25.00411       177.92192      0.0040313024 
  19690000   319.20871     -18.668001      31.380047      202.06065      0.0032235111 
  19700000   302.12938     -18.793434      38.062199      198.48623      0.001579492  
  19710000   320.61996     -20.153787      36.299818      206.33177      0.0033970243 
  19720000   309.90568     -18.395245      43.409832      208.84481      0.003320663  
  19730000   289.71892     -15.089826      30.838544      187.60453      0.0037589311 
  19740000   300.15943     -15.401096      36.122003      198.76984      0.0017332878 
  19750000   285.36566     -24.92121       39.4458        183.79814      0.00093528586
  19760000   268.95167     -22.691997      36.933093      173.77817     -2.1391242e-05
  19770000   313.25188     -21.929138      34.603807      198.4898       0.0020511591 
  19780000   353.06715     -19.992686      37.192678      226.63279      0.0032332911 
  19790000   298.00405     -18.497673      36.091733      194.36446      0.0016724505 
  19800000   254.81264     -17.803769      32.391329      165.73763      0.00060157438
  19810000   293.27943     -21.223811      30.958311      183.70234      0.0024727106 
  19820000   283.22275     -20.074272      38.63054       186.55868      0.00080250321
  19830000   317.98803     -20.652646      33.690802      201.66268      0.0026326964 
  19840000   306.4127      -17.057843      40.916785      205.6172       0.0016525117 
  19850000   308.11079     -23.017219      31.004796      190.7531       0.0014971553 
  19860000   318.98711     -29.196868      33.372083      193.39237      0.0020024205 
  19870000   289.33219     -29.328673      43.033159      185.3309       0.00080967845
  19880000   273.38651     -27.415893      29.159202      163.91105      0.00064062924
  19890000   325.94302     -31.03162       26.370985      188.68264      0.0040514529 
  19900000   315.4797      -26.82618       35.822056      196.1325       0.0017159555 
  19910000   285.98295     -25.987794      33.640372      177.29229      0.0026118442 
  19920000   292.10088     -20.261573      33.305103      186.31228      0.0030498135 
  19930000   332.60442     -28.124556      39.573395      208.74353      0.0026012146 
  19940000   262.15481     -23.961007      30.003568      161.54787      0.0019344278 
  19950000   323.6762      -26.108861      31.807761      197.69754      0.0035729697 
  19960000   289.11317     -23.334585      32.047441      180.20935      0.002399959  
  19970000   316.59348     -21.424766      39.161607      205.53414      0.0012415382 
  19980000   329.27688     -14.894326      39.939103      220.36563      0.0027769957 
  19990000   313.78216     -16.214952      41.143513      211.05824      0.0023817422 
  20000000   293.59756     -14.178386      38.025849      198.00402      0.001199415  
  20010000   309.46757     -23.734733      27.836305      187.67192      0.0024271317 
  20020000   332.10047     -23.124582      34.287995      208.15917      0.0029501528 
  20030000   327.01827     -24.039217      29.065792      199.00767      0.0036382253 
  20040000   310.66266     -25.298278      39.919973      198.90094      0.0016581059 
  20050000   308.19529     -31.50177       40.875874      192.18975      0.0025981427 
  20060000   324.00361     -32.969744      36.265819      195.48892      0.0039272951 
  20070000   269.80541     -26.361766      37.532773      171.2145       0.0012105687 
  20080000   313.93402     -27.886974      33.111107      191.44389      0.0032897067 
  20090000   256.34554     -32.978255      30.998748      150.07985      0.0015690307 
  20100000   323.18621     -25.626193      48.298778      214.38057      0.0013452766 
  20110000   268.20942     -22.060005      38.051988      175.08877      0.00058384487
  20120000   270.69693     -14.194545      38.789916      185.1677       0.00044639438
  20130000   253.19628     -17.715429      32.553977      165.02982      0.0011244694 
  20140000   298.11682     -20.866297      38.473063      194.44406      0.0030896684 
  20150000   279.9192      -21.854249      38.263349      182.45191      0.0018508529 
  20160000   298.14486     -25.886458      30.650296      181.61776      0.0014709904 
  20170000   291.062       -20.016425      39.757299      192.39338      0.0023779248 
  20180000   294.87307     -22.354529      31.533587      184.09222      0.0026042625 
  20190000   302.56056     -31.772802      33.83722       181.53765      0.003073368  
  20200000   303.3842      -22.023762      37.800084      195.73813      0.0023287722 
  20210000   276.53082     -28.363122      43.93993       179.60969      0.00079716469
  20220000   304.84235     -30.01107       39.210407      190.02609      0.0034969027 
  20230000   314.07816     -27.809358      38.596614      197.09252      0.0024359987 
  20240000   304.69344     -28.819495      38.708034      190.62696      0.003061847  
  20250000   307.41772     -22.943752      35.927351      195.33801      0.0017100601 
  20260000   295.16927     -23.590737      25.639072      177.1372       0.0051181812 
  20270000   298.39611     -19.787804      34.880177      192.09533      0.00093808482
  20280000   291.72011     -14.00797       28.278446      187.31336      0.003098703  
  20290000   282.58198     -16.632205      29.284031      180.27414      0.0023910801 
  20300000   305.28075     -20.618687      34.21718       194.6853       0.0016263572 
  20310000   286.75672     -26.108991      33.981502      177.97121      0.0024830668 
  20320000   314.54965     -22.935591      39.671335      203.32068      0.0024566204 
  20330000   323.62775     -16.248928      28.279842      204.00081      0.0019082445 
  20340000   293.80985     -15.73816       44.379695      202.92402      0.0010508978 
  20350000   291.16668     -17.971163      31.033872      185.77731      0.0021526499 
  20360000   292.13367     -19.4675        31.01882       184.83952      0.0031024452 
  20370000   303.61427     -22.220292      31.373305      189.25129      0.0038332362 
  20380000   301.72653     -18.31852       37.902146      198.56213      0.0033906016 
  20390000   287.8018      -13.677529      26.013284      183.05437      0.0040168178 
  20400000   309.61134     -20.228217      27.064023      190.49143      0.0039020321 
  20410000   303.05628     -19.945227      36.477316      196.29938      0.0029480224 
  20420000   280.99201     -19.716329      34.044662      181.00751      0.0017144812 
  20430000   299.40551     -23.715318      35.921137      189.80754      0.0015802952 
  20440000   288.79292     -22.580744      37.022712      185.7485       0.0020794808 
  20450000   305.27724     -17.637664      39.37238       202.81944      0.00278511   
  20460000   289.72103     -16.311816      37.735122      193.28037      0.0020148885 
  20470000   289.92689     -20.879118      30.866574      181.96664      0.0027878817 
  20480000   315.73915     -23.143442      30.115329      194.26241      0.0048590002 
  20490000   302.06474     -21.91788       29.499111      186.76035      0.0032671475 
  20500000   309.74637     -22.881107      39.966259      200.82087      0.0021723021 
  20510000   288.86085     -23.066821      32.379467      180.65947      0.0022022502 
  20520000   289.03892     -28.967488      31.706341      174.19131      0.0020842912 
  20530000   262.68622     -25.830038      35.851076      165.84157      0.00171357   
  20540000   270.11167     -22.641581      34.677644      172.26123      0.002156267  
  20550000   282.25667     -22.955325      29.5458        174.01983      0.0024369403 
  20560000   304.65591     -21.970917      38.593653      197.33889      0.0029103821 
  20570000   292.4218      -25.574709      37.464881      185.34928      0.0024665055 
  20580000   298.5362      -18.071703      32.461158      191.47552      0.002257453  
  20590000   307.22934     -16.655525      32.921433      198.50857      0.0017810915 
  20600000   317.21074     -29.280427      34.986153      193.86917      0.0024580586 
  20610000   280.83963     -24.540788      39.73285       181.78085      0.0010364548 
  20620000   292.26313     -28.917418      32.148302      176.59587      0.0020240643 
  20630000   292.55265     -31.497219      33.220659      175.26017      0.0012856694 
  20640000   288.13488     -23.675566      37.827916      185.06854      0.002227796  
  20650000   310.62308     -28.936925      44.82387       200.14272      0.0015234619 
  20660000   316.74957     -28.682608      43.31046       202.51774      0.00099648463
  20670000   318.34463     -32.073754      34.83761       191.59991      0.003690977  
  20680000   293.36595     -26.353099      40.894655      188.56072      0.00089764223
  20690000   305.81308     -24.150945      39.533225      196.78485      0.0011232179 
  20700000   274.22185     -27.494317      39.943123      175.11205      0.00071069335
  20710000   283.15496     -32.460905      32.301565      167.80286      0.00012623336
  20720000   316.29233     -30.068563      30.368773      187.91887      0.0028748356 
  20730000   302.59454     -31.531912      40.421291      188.38277      0.0019504465 
  20740000   288.6728      -31.952335      41.102383      180.38533      0.0018017891 
  20750000   306.10525     -36.905962      37.270994      181.94091      0.0014446939 
  20760000   298.92834     -34.383665      28.946213      171.88122      0.0024584907 
  20770000   325.96601     -30.610027      39.401147      202.14803      0.0018301676 
  20780000   268.63482     -24.592399      39.478142      174.23487     -0.0016912113 
  20790000   323.56463     -37.256879      31.616177      186.29175      0.0016528145 
  20800000   312.01819     -28.683698      40.49213       196.89175      0.0033633159 
  20810000   295.92214     -28.410751      38.111114      185.23581      0.00094683361
  20820000   291.13019     -35.259761      37.366768      174.79997      0.00025886837
  20830000   318.54399     -34.854902      34.132716      188.23212      0.0031149439 
  20840000   290.74513     -33.006819      49.323098      188.78082      0.00087780837
  20850000   322.32323     -44.085731      39.680203      186.79055      0.00075618349
  20860000   292.43479     -36.694341      34.620514      171.39299      0.0030342892 
  20870000   304.89633     -34.689902      28.743679      174.91255      0.0033161248 
  20880000   300.94267     -32.472465      46.582838      192.62391     -0.00011533416
  20890000   353.20956     -31.829999      40.337413      218.02469      0.0020186016 
  20900000   301.54074     -33.615362      35.848364      181.1013       0.0023886579 
  20910000   293.64448     -34.466715      30.49056       170.20823      0.0018155635 
  20920000   321.06975     -39.414757      35.12877       186.16655      0.0030139893 
  20930000   306.57294     -35.108636      21.511274      168.25594      0.004117887  
  20940000   273.65896     -32.774848      29.642427      159.19693      0.0025705329 
  20950000   301.43374     -30.075789      39.794284      188.52332      0.0011811159 
  20960000   295.5525      -32.943371      39.74663       182.11945      0.00044488789
  20970000   284.48038     -29.505625      35.477591      174.72038      0.00093329183
  20980000   298.64477     -27.278251      38.767623      188.63983      0.0015955567 
  20990000   286.21269     -34.452686      38.148248      173.47155      0.0010221379 
  21000000   298.64884     -35.608754      33.555812      175.09993      0.001618487  
  21010000   295.52619     -35.984707      38.789253      178.10513      0.0013742385 
  21020000   302.23093     -36.775554      39.107474      181.60962      0.0011842582 
  21030000   300.70743     -41.651412      39.542584      176.26517      0.0015448588 
  21040000   263.21666     -37.94123       39.538961      157.7329       0.0020805831 
  21050000   297.84566     -37.10964       22.322915      161.88972      0.0038959026 
  21060000   285.26975     -35.38003       43.75939       177.59602      6.983793e-06 
  21070000   323.57843     -40.928439      32.01058       183.02278      0.0023389763 
  21080000   290.58994     -39.104376      22.214524      155.48264      0.003649563  
  21090000   292.02164     -37.237013      35.841122      171.82586      0.0027876408 
  21100000   328.65323     -35.508377      34.915063      194.35761      0.0036655256 
  21110000   313.06919     -41.026659      35.663707      180.3438       0.0027614124 
  21120000   298.20327     -40.332773      33.517415      170.07322      0.002332037  
  21130000   313.61059     -39.992601      38.806557      184.84186      0.0017528899 
  21140000   308.21061     -34.107171      41.500702      190.21827      0.0027146782 
  21150000   313.3316      -38.74833       37.143156      184.25724      0.00041814378
  21160000   290.95239     -40.203617      34.042193      166.42606      0.00078782965
  21170000   304.89586     -43.396238      42.971539      180.43379      0.0014598463 
  21180000   296.7692      -40.265888      33.714206      169.48623      0.0037944718 
  21190000   308.70877     -41.343769      39.001931      180.7784       0.0032485522 
  21200000   281.19352     -41.984859      31.10474       155.91859      0.00099031713
  21210000   271.07431     -36.9076        33.548742      157.43732      0.003083418  
  21220000   303.48458     -45.850471      37.528535      171.69941      0.0011647101 
  21230000   310.50033     -44.373275      26.43417       166.24385      0.0036066569 
  21240000   294.85283     -40.180306      36.686051      171.4069       0.002073744  
  21250000   284.3842      -37.726835      32.059413      163.02394      0.0015837389 
  21260000   295.88471     -31.50012       23.322154      167.33528      0.0033114947 
  21270000   301.58685     -41.569315      34.699641      172.02598      0.00097028565
  21280000   268.43624     -36.387617      39.589924      162.43364      0.00039773129
  21290000   307.03909     -30.13149       29.840284      181.83861      0.0036204907 
  21300000   292.40576     -33.849724      35.229251      174.82913      0.00090405624
  21310000   278.6729      -26.734785      28.546493      167.11523      0.0014725889 
  21320000   293.11405     -28.531915      32.16151       177.49934      0.0014929857 
  21330000   266.93965     -26.879023      35.156357      166.62091      0.001101194  
  21340000   289.84799     -30.926265      39.706286      180.7124       0.0019800759 
  21350000   302.90861     -33.15127       35.888927      182.41735      0.0015298537 
  21360000   310.7173      -27.262599      32.233175      189.28223      0.0028736962 
  21370000   279.88418     -24.579815      32.640521      174.08274      0.0021203707 
  21380000   311.76927     -25.15724       43.503082      203.28151      0.00069072025
  21390000   318.29528     -24.006144      31.513332      196.31396      0.0015672562 
  21400000   280.21069     -20.561618      37.722403      183.3765       0.00048298493
  21410000   297.2963      -22.584753      39.663827      193.42965      0.0013839994 
  21420000   314.75956     -26.390592      41.416944      201.73581      0.00027772283
  21430000   282.44581     -26.172507      43.601886      184.97093     -4.4304762e-05
  21440000   300.80543     -32.012099      42.047105      188.46713     -0.00052573174
  21450000   316.49319     -30.534472      35.427727      192.63107      0.0023488815 
  21460000   289.67797     -24.882186      36.959416      183.90876      0.0010947597 
  21470000   288.12713     -27.944469      41.585487      184.55262     -0.00090271545
  21480000   329.14048     -27.432201      40.925939      208.73368      0.0019213818 
  21490000   299.21432     -31.793479      31.980559      177.67539      0.0030498575 
  21500000   310.74807     -29.729492      31.807033      186.40745      0.0021288955 
  21510000   294.17699     -31.552813      40.021857      182.9693      -0.00030936702
  21520000   306.55908     -32.368518      33.845624      183.32219      0.002062466  
  21530000   309.52304     -33.889305      35.38906       185.103        0.002795846  
  21540000   285.53272     -27.295482      34.538782      176.61594      0.0010236551 
  21550000   286.4456      -25.624244      37.077009      181.36691      0.0011778722 
  21560000   303.86057     -23.072721      44.965388      202.13704      0.0012864002 
  21570000   316.08965     -28.714669      30.47035       189.25412      0.0035977325 
  21580000   290.90137     -29.28443       28.506019      171.77881      0.0017098183 
  21590000   259.61526     -22.213281      44.478138      176.26375     -0.00027093165
  21600000   309.69683     -18.605894      33.361422      198.46187      0.0011349616 
  21610000   284.39606     -19.337233      33.647056      183.00822      0.0029347076 
  21620000   308.14236     -23.360628      42.03687       201.4605       0.0011668364 
  21630000   282.42153     -31.809071      42.331513      178.04958      0.00018985214
  21640000   334.49515     -27.235943      34.957571      206.13786      0.0020383797 
  21650000   275.29109     -26.151821      39.091566      176.23725     -1.8358632e-05
  21660000   324.67464     -34.406328      38.466657      196.65122      0.00088049818
  21670000   272.61663     -28.223777      26.039905      159.52719      0.0021833078 
  21680000   294.25921     -28.684831      39.211617      185.07582      0.0014752022 
  21690000   303.03686     -22.615205      34.942594      192.08316      0.0019018119 
  21700000   306.28519     -36.01029       31.359491      177.03182      0.0015502687 
  21710000   314.59996     -32.773242      41.49586       195.3374       0.0022834277 
  21720000   328.11446     -35.564567      34.403023      193.46979      0.0023315109 
  21730000   324.94753     -35.402398      36.977563      194.32793      1.6012613e-05
  21740000   288.63869     -34.800998      44.521154      180.9352      -1.0844598e-05
  21750000   308.75633     -31.212281      40.965973      192.90215      0.0010813059 
  21760000   322.42572     -41.858063      40.637436      190.03625      0.0007964284 
  21770000   316.89799     -42.46362       40.91867       186.43298      0.0014737618 
  21780000   298.11184     -42.811934      37.936343      171.95875      0.00037544805
  21790000   294.17517     -38.535597      33.218015      169.1816       0.0010994704 
  21800000   277.53397     -40.565536      29.641785      153.70418      0.0028231418 
  21810000   304.02795     -36.220033      42.250224      186.37386     -0.0013101164 
  21820000   275.08349     -35.038658      45.100023      173.23572     -0.00027644248
  21830000   307.01371     -33.975394      47.993654      196.13302      0.0010217591 
  21840000   329.36481     -30.358823      39.940088      204.95428      0.0013747596 
  21850000   309.57579     -34.090699      39.583032      189.12687      0.0015410292 
  21860000   298.80772     -30.839345      37.819411      184.22719      0.0015683422 
  21870000   306.17384     -39.808353      32.584646      174.39286      0.0014484835 
  21880000   306.47279     -34.922946      42.79442       189.66537      0.00018980711
  21890000   284.51474     -37.041435      37.822536      169.54989      0.0011084041 
  21900000   292.48508     -31.44269       39.464977      181.51894      0.0010691687 
  21910000   274.8608      -32.288774      40.874786      171.62827      0.00088860976
  21920000   293.46923     -29.624494      39.263967      183.7199       0.0021921414 
  21930000   285.00273     -33.565482      45.376295      180.86907     -0.00026940607
  21940000   291.487       -33.990006      41.337237      180.25184      0.00061290019
  21950000   313.18239     -31.699573      29.623755      183.69809      0.0022025302 
  21960000   337.71357     -31.419693      39.262375      208.16802      5.5148231e-05
  21970000   290.70954     -30.266864      33.651441      175.82801      0.0026045399 
  21980000   298.13005     -22.516639      37.000205      191.32871      0.0011540777 
  21990000   275.09306     -27.741725      33.261276      168.69958      0.0019526823 
  22000000   322.60751     -34.826668      30.986923      187.52497      0.003349717  
  22010000   291.98621     -37.50676       39.7858        175.47977      0.0012944147 
  22020000   272.2107      -36.968984      35.144594      159.64588      0.00093759156
  22030000   317.02372     -41.077041      43.792359      190.76783      0.00020481173
  22040000   323.20173     -36.355191      35.66239       191.02439      0.00057179762
  22050000   292.19596     -30.21089       31.499799      174.61406      0.0027246956 
  22060000   270.55396     -33.095355      37.427926      164.82009      0.00035603762
  22070000   322.87173     -33.400082      37.341682      195.46304      0.0022931092 
  22080000   290.20453     -30.50074       50.716669      192.3598      -0.00045808107
  22090000   274.23742     -30.946738      40.667151      172.39289      0.00073391588
  22100000   315.3739      -34.558617      43.36133       195.87658      0.00066491072
  22110000   312.44556     -33.70281       40.453174      192.0872       0.00087272239
  22120000   283.60174     -38.682357      38.822754      168.36761     -0.0001719408 
  22130000   286.99827     -33.239097      31.54274       168.54562      0.00023649129
  22140000   317.48902     -41.05414       35.623811      182.89819      0.0027559003 
  22150000   293.29104     -40.478046      37.110898      170.60758      0.00023664706
  22160000   286.23252     -37.818002      42.916892      174.88664      7.4308453e-05
  22170000   308.16418     -49.169187      38.110362      171.73837      0.0019101244 
  22180000   288.69468     -40.579315      37.353749      168.02269      0.0021281293 
  22190000   298.11664     -47.91432       42.456718      171.37959     -0.00026532367
  22200000   288.4046      -44.282502      38.12151       164.91519     -0.00099855477
  22210000   331.1147      -45.587532      33.846861      184.67034      0.0017127985 
  22220000   283.5854      -43.074813      34.578663      159.72138      0.0019593437 
  22230000   286.05802     -42.053553      35.787378      163.41807      0.0019305884 
  22240000   291.87509     -42.493998      33.407334      164.04815      0.001838948  
  22250000   281.71697     -46.000307      51.748272      172.85718     -0.0032305415 
  22260000   339.68393     -50.047297      41.88422       193.33105      0.0027793968 
  22270000   329.94848     -41.95089       39.734728      193.50307      0.0012284754 
  22280000   274.85945     -36.146559      39.205164      166.10006     -0.00059623349
  22290000   291.67267     -32.546534      39.335357      179.80357     -0.00020606945
  22300000   305.77846     -31.664545      33.061753      182.77924      0.0023130982 
  22310000   282.27742     -30.057397      36.866088      174.25035      0.0021886839 
  22320000   313.45144     -29.274263      32.534959      189.1942       0.003295631  
  22330000   302.00843     -40.819023      29.849919      168.17662      0.0026543362 
  22340000   296.01976     -32.525936      34.100209      177.16763      0.0011766883 
  22350000   280.34576     -32.370366      40.033589      173.95906      0.00049174024
  22360000   295.54302     -26.405007      33.459314      182.36487      0.0027171982 
  22370000   297.20183     -33.989294      32.277371      174.58262      0.0015344239 
  22380000   286.31617     -33.908455      28.231523      164.16043      0.002199247  
  22390000   294.32676     -42.540422      26.012225      158.0609       0.0026028902 
  22400000   296.17207     -48.304731      41.009961      168.38893     -9.6902487e-05
  22410000   286.2759      -43.245337      38.294518      164.86266     -0.00018937567
  22420000   316.32599     -43.237575      42.067712      186.46877      0.00053816974
  22430000   331.60647     -43.74723       40.512428      193.46792      0.0033506779 
  22440000   283.11924     -37.891525      39.960856      170.01034     -0.00048369861
  22450000   272.82765     -52.004831      31.308835      141.14024      0.00082002755
  22460000   318.95214     -43.678662      33.028685      178.54644      0.0019983856 
  22470000   310.90148     -44.70275       39.608877      179.32704      0.0020743314 
  22480000   305.53337     -43.989896      37.609192      174.85595      0.001154577  
  22490000   304.33974     -46.532192      41.999799      175.99622      0.0015642086 
  22500000   315.04809     -47.06058       38.925507      178.74553      0.0017186192 
  22510000   282.73258     -48.426895      36.055699      155.34045      0.00062899141
  22520000   314.55661     -51.437194      41.820017      176.97189      0.00079410926
  22530000   287.26594     -50.705594      39.268889      158.96405      0.00092768301
  22540000   272.85735     -48.08356       32.510272      146.28056      0.0016263831 
  22550000   284.12973     -43.123465      32.00044       157.41739      0.0010871157 
  22560000   312.54367     -37.876386      35.326146      182.84479      0.0017031769 
  22570000   316.49148     -34.671339      37.38213       190.44759      0.0020778565 
  22580000   291.48445     -38.672794      37.895478      172.12578      0.0015656999 
  22590000   312.99889     -41.689432      32.219689      176.19531      0.0031452293 
  22600000   260.37579     -34.791244      33.751956      153.41074      0.0012306971 
  22610000   289.13184     -43.936264      48.439865      176.01117     -0.001237992  
  22620000   312.90722     -34.790332      37.745756      188.56611      0.0015898606 
  22630000   298.83594     -41.396947      39.377865      175.24478      0.0016317755 
  22640000   313.1342      -40.779895      34.01556       178.98099      0.0023962625 
  22650000   280.17208     -47.815312      36.609911      154.98741      0.00017880318
  22660000   263.0648      -43.996881      32.340086      144.3883       0.001494674  
  22670000   311.52093     -45.513435      41.524414      180.79934      0.0021202073 
  22680000   297.67127     -40.066447      37.656776      174.16333      0.0018409248 
  22690000   288.17152     -39.917821      36.686535      167.70664     -0.00038642093
  22700000   326.49292     -39.738813      31.796568      185.72722      0.0021747462 
  22710000   315.69606     -45.992321      39.255596      180.52824      0.00031011679
  22720000   296.62477     -38.735712      35.934076      173.1506       0.002458823  
  22730000   303.66823     -48.55163       33.036656      164.61531      0.0029095462 
  22740000   281.32439     -41.778777      35.477355      160.57492      0.0013488268 
  22750000   299.38269     -36.804841      31.823502      172.60684      0.0017882316 
  22760000   305.36192     -42.436038      41.594351      180.29327      0.00016120841
  22770000   286.061       -47.561676      35.547708      157.67204      0.0012719482 
  22780000   326.31326     -41.521785      43.556551      195.59765      0.0021778267 
  22790000   246.58491     -44.536801      38.845815      140.57854      0.00051611608
  22800000   289.48339     -33.239757      38.729203      177.20555      0.0026768914 
  22810000   316.36097     -36.937472      33.916253      184.63816      0.002712357  
  22820000   312.83768     -41.932219      36.909951      180.54716      0.00042740998
  22830000   317.51241     -37.248662      36.609269      187.703        0.001631576  
  22840000   286.985       -33.784334      42.327622      178.77739      0.00078780083
  22850000   310.96917     -30.407789      34.118462      188.17174      0.002050019  
  22860000   274.75964     -38.804224      28.24966       152.42769      0.0010794068 
  22870000   282.48463     -40.376351      43.476908      170.66513      7.1859615e-05
  22880000   310.58413     -45.906271      45.679076      184.00547     -0.00082430523
  22890000   291.03693     -46.929496      41.261335      166.96948     -0.0001354941 
  22900000   308.29997     -47.413595      33.629156      169.09331      0.00018231373
  22910000   310.36973     -50.914518      39.179527      172.3705       0.0008238541 
  22920000   311.28107     -51.756304      49.218297      182.10807     -0.0014228283 
  22930000   294.53848     -48.527912      38.65247       164.83925      0.0011520095 
  22940000   298.86767     -52.865031      29.705671      154.12332      0.0040176759 
  22950000   293.23553     -52.727736      30.040378      151.25445      0.0022502834 
  22960000   299.90759     -46.426758      44.021886      175.49467      0.00112293   
  22970000   296.50338     -38.331927      37.194327      174.74263      0.00087252715
  22980000   321.28935     -42.367812      35.047107      183.2621       0.0012744181 
  22990000   301.62537     -46.843472      33.266944      165.34197      0.0010544606 
  23000000   320.16774     -51.198906      39.162845      177.88142      0.0013062743 
  23010000   321.08803     -36.538406      36.910321      190.8353       0.0015730672 
  23020000   329.51248     -39.930286      42.354695      197.88502      0.0019968409 
  23030000   276.39874     -38.35875       36.004378      161.60016      0.0015001773 
  23040000   310.15287     -33.924254      28.488119      178.54072      0.0037913414 
  23050000   287.35869     -32.561557      40.308185      178.2024      -0.00022253688
  23060000   268.91304     -40.559148      26.23122       145.18623      0.00073093851
  23070000   301.81104     -40.918212      38.912872      177.0233      -4.5624608e-05
  23080000   303.42268     -43.531708      32.751605      169.20452      0.001180014  
  23090000   287.30528     -27.477581      38.144711      181.09122      0.0010861001 
  23100000   281.30351     -37.011996      38.936812      168.78877      0.0007674138 
  23110000   293.05735     -37.567674      40.784797      177.05323      8.8860898e-05
  23120000   306.52213     -34.372616      43.577461      191.02801      0.00085537089
  23130000   351.96215     -44.743325      41.800375      205.83438      0.0017640165 
  23140000   276.96106     -37.651701      37.134269      163.77066      0.00088660058
  23150000   306.99128     -35.076528      35.370673      182.3956       0.00033721716
  23160000   290.69944     -37.737316      39.781312      174.48144      0.0011815089 
  23170000   326.41847     -37.540944      39.439171      195.52353      0.00042615556
  23180000   346.54718     -28.51378       32.452944      209.50444      0.0040808077 
  23190000   333.58589     -27.863485      33.983146      203.99654      0.0020127068 
  23200000   297.80893     -32.015499      36.35076       180.98992      0.0029451519 
  23210000   328.48202     -32.121515      43.704588      206.43243     -1.5946472e-05
  23220000   315.96892     -37.942185      38.473093      187.95773      0.0013923281 
  23230000   303.02518     -38.623519      25.823631      166.94895      0.0041670888 
  23240000   313.37512     -39.567761      32.28214       178.60261      0.0028557786 
  23250000   306.70466     -37.197965      36.727875      181.46135      0.0022708662 
  23260000   298.24884     -41.812635      38.620406      173.72337      0.00089685461
  23270000   279.71446     -36.091446      43.862713      173.69262      0.00028140886
  23280000   303.43797     -36.317352      49.245522      192.92187      0.00060581909
  23290000   303.52143     -40.341883      40.024814      179.72614     -0.00020319971
  23300000   282.50616     -44.002464      40.640268      164.21515      0.00081544088
  23310000   282.31941     -38.191513      41.19932       170.47437     -0.00012479492
  23320000   303.01659     -39.734043      36.863075      176.87277      0.00013466127
  23330000   288.27        -37.193409      29.686267      163.4892       0.0026875187 
  23340000   307.53553     -38.114824      29.268701      173.57817      0.0023008602 
  23350000   303.72126     -44.539217      39.181317      174.80384      0.00031690944
  23360000   271.75949     -43.60039       34.739689      152.34192     -1.8243765e-05
  23370000   284.08811     -47.185945      27.842294      149.17207      0.0021989099 
  23380000   276.12198     -46.054252      26.549339      144.28546      0.0018929573 
  23390000   305.92136     -47.283668      38.705411      172.88854      0.0019549001 
  23400000   283.47549     -46.113324      43.083729      165.12273      0.00036354469
  23410000   297.8759      -38.541972      41.853426      180.00584      0.00050381481
  23420000   331.65262     -40.350317      46.457537      202.83732      0.00044723168
  23430000   299.28536     -44.692104      40.78994       173.62829      0.0003534562 
  23440000   295.92695     -41.821309      41.630608      175.3476       0.00035695897
  23450000   354.31625     -47.496827      37.314581      199.99149      0.0031182308 
  23460000   296.97575     -47.038095      33.228434      162.35077      0.0016430788 
  23470000   287.8559      -41.750035      41.872092      170.87277      0.00034036569
  23480000   334.96991     -43.536374      35.066654      190.22813      0.0012950338 
  23490000   297.62931     -42.696456      31.844263      165.69592      0.0022088028 
  23500000   285.22703     -37.841461      28.743258      160.09311      0.0031931713 
  23510000   299.02613     -33.461007      34.59672       178.51239      0.0025436254 
  23520000   322.33681     -33.541732      50.392319      208.05472     -0.0005628914 
  23530000   284.29119     -36.625919      40.737621      172.74789     -0.00035693356
  23540000   314.17708     -39.915242      41.448378      187.89707      0.00043932464
  23550000   299.84229     -36.796759      34.376324      175.44038      0.0021666284 
  23560000   294.95817     -40.917374      39.906821      173.95309      0.0009430481 
  23570000   263.00376     -41.186279      41.594868      156.41747     -0.00061680737
  23580000   318.45683     -34.010057      41.081307      195.97386      0.0016497426 
  23590000   265.70967     -36.757091      49.269778      170.12667     -0.0011596351 
  23600000   274.97481     -36.221081      43.717816      170.60662     -0.0014621134 
  23610000   308.39917     -30.530129      32.592892      184.99935      0.0018565296 
  23620000   281.8307      -36.700099      33.940932      164.41751      0.00089152608
  23630000   311.70082     -29.69448       39.008341      194.20893      0.00081265577
  23640000   306.13955     -28.721258      36.344835      189.2198       0.0009339657 
  23650000   283.91852     -21.360127      41.056374      188.11138     -8.3015839e-05
  23660000   285.77135     -31.739913      35.505161      173.27944      0.00055561558
  23670000   312.77919     -37.04138       37.376686      185.87004      0.0015045482 
  23680000   283.76593     -38.193527      40.12716       170.25825      0.0003073682 
  23690000   293.57586     -33.824332      40.514008      180.83335     -0.00045039668
  23700000   317.95336     -35.638507      36.957515      189.92297      0.0013550796 
  23710000   274.35172     -36.876473      36.163485      162.0273       0.00015223869
  23720000   317.50724     -39.301869      39.690557      188.72801      0.0004015528 
  23730000   278.43558     -33.101978      50.685515      182.74629     -0.0012177979 
  23740000   325.96083     -43.169649      36.156133      186.34032      0.0012529427 
  23750000   341.63648     -30.070723      38.389345      210.97096      0.0045192709 
  23760000   304.41401     -33.295235      33.21209       180.48952      0.002006641  
  23770000   284.42571     -43.316176      40.184919      165.58472     -0.0010923556 
  23780000   304.31025     -43.451335      37.058158      174.11794      0.00071607984
  23790000   286.3863      -41.584486      44.238932      172.53341     -0.00040315682
  23800000   338.26058     -34.864018      41.619249      207.40505      0.0013450537 
  23810000   318.96493     -30.459462      35.997334      194.74187      0.001125345  
  23820000   303.11457     -37.047721      44.593743      187.34789     -0.0018843068 
  23830000   303.85998     -41.466659      30.262378      169.03974      0.0024326638 
  23840000   283.88468     -43.803156      32.115559      156.70746      0.0013485058 
  23850000   304.42572     -35.014857      42.464582      188.02934      0.0013770369 
  23860000   334.83004     -40.309337      40.664985      198.97053      0.0023167235 
  23870000   312.18621     -42.810407      33.96667       176.33925      0.0014566163 
  23880000   288.67943     -37.368358      40.074823      173.94568      0.0020903757 
  23890000   290.60519     -35.43053       29.949328      166.90033      0.00096143307
  23900000   305.55418     -38.036144      45.633831      188.84668      0.0017889055 
  23910000   297.78496     -38.122346      35.52269       174.04078      0.0014797834 
  23920000   324.71663     -30.606386      35.598514      197.60793      0.0021376838 
  23930000   299.84016     -27.07791       50.809532      201.59117     -0.00049813073
  23940000   299.6864      -29.853543      35.608542      183.52333      0.0010185379 
  23950000   316.32442     -29.349797      48.176732      206.46463     -0.00025994264
  23960000   316.54327     -28.376703      39.117996      198.50881      0.0010046628 
  23970000   300.77336     -28.810548      33.840231      183.44279      0.0013690668 
  23980000   271.44442     -34.151661      41.359411      168.22348     -0.00037933035
  23990000   296.60296     -35.52492       36.671006      177.08538      0.00014313925
  24000000   313.215       -28.076366      28.926048      186.64293      0.003521966  
  24010000   332.004       -26.844975      29.239341      199.3329       0.0044065098 
  24020000   308.56498     -34.375221      44.042817      192.70254      0.00039274578
  24030000   295.6512      -39.575396      38.867449      174.66679      0.001420658  
  24040000   299.94836     -32.161687      33.770484      179.53252      0.00096535976
  24050000   283.06593     -22.396609      30.472053      175.98483      0.0019369124 
  24060000   271.89538     -23.675395      41.828318      179.43615     -0.00103832   
  24070000   313.17078     -33.173698      34.39402       186.98734      0.0026484392 
  24080000   328.16722     -35.515003      37.571943      196.71957      0.0019037593 
  24090000   317.39781     -36.666496      35.514713      187.12263      0.0023657205 
  24100000   291.72626     -29.074047      38.284082      182.25657      0.0021823764 
  24110000   306.81622     -29.050513      25.746202      178.6933       0.0026859917 
  24120000   293.61184     -34.467943      37.70536       177.40244      0.00094235331
  24130000   312.88426     -27.721043      35.66377       193.53979      0.0015285591 
  24140000   287.01131     -29.997208      38.063339      178.31584      0.00095471375
  24150000   309.63702     -25.283062      45.366864      203.75466      0.0020369166 
  24160000   299.46906     -24.661574      38.701582      191.67943      0.001296308  
  24170000   318.3625      -31.585457      42.944153      200.20534      0.0014087283 
  24180000   301.58339     -24.440965      39.742171      194.1948       0.0022003836 
  24190000   303.97663     -25.694119      38.403689      193.02279      0.0016988465 
  24200000   299.49019     -25.320975      42.120367      194.45134      0.00081348729
  24210000   314.97888     -34.18618       38.261909      190.91528      0.002528696  
  24220000   307.40665     -30.073258      44.034581      196.30917      0.0024999907 
  24230000   312.27452     -31.226202      44.127637      198.13681      0.00094188899
  24240000   310.6069      -31.794605      40.571736      193.0233       0.001088526  
  24250000   286.65498     -28.68992       34.083165      175.43159      0.0023041673 
  24260000   297.75703     -39.817453      37.168344      173.97476      0.0008274075 
  24270000   329.29136     -36.027086      39.076735      198.37909      0.0023130158 
  24280000   323.14481     -33.714116      40.006196      197.97551     -0.00019397313
  24290000   306.18124     -35.989527      32.97241       178.60384      0.0029169825 
  24300000   278.36581     -28.671121      36.37698       172.82722      0.00084546171
  24310000   338.86792     -26.396871      38.03342       212.64663      0.0019688043 
  24320000   323.57786     -27.05469       37.502139      202.38775      0.0016039416 
  24330000   305.35799     -24.536626      36.333426      192.92942      0.0013574154 
  24340000   299.6972      -21.50368       34.001152      190.27222      0.0026340198 
  24350000   298.83954     -24.34321       39.686199      192.60898      0.00040342908
  24360000   313.49603     -25.004193      28.208939      189.16469      0.0030402257 
  24370000   297.02246     -24.964447      40.198877      191.42257      0.0014017996 
  24380000   307.58166     -25.868935      39.330933      195.91366      0.0022785695 
  24390000   298.92846     -26.027054      30.679618      181.9713       0.0031007713 
  24400000   296.67814     -20.631044      38.577806      193.93066      0.0014857845 
  24410000   268.30917     -22.840337      36.981826      173.29745      0.00014495579
  24420000   295.37054     -20.172891      24.476659      179.51202      0.0044061922 
  24430000   304.30537     -16.545074      37.084437      201.04759      0.0013581768 
  24440000   289.69297     -27.143457      30.1327        174.82967      0.0023488518 
  24450000   292.60669     -22.89536       46.355928      197.02935      9.0345089e-05
  24460000   322.11321     -17.264779      40.66751       214.47423      0.0022633885 
  24470000   276.73323     -18.420253      45.061853      190.79455     -0.00015963297
  24480000   285.19807     -19.467541      32.871479      182.57807      0.0020898861 
  24490000   306.40688     -18.238913      34.410031      197.92592      0.0018950793 
  24500000   303.58992     -30.560687      35.772822      185.29597      0.0026287396 
  24510000   289.74453     -31.237657      30.919647      171.553        0.0024015286 
  24520000   304.37784     -26.832724      32.773463      186.49195      0.0020311947 
  24530000   317.91818     -21.482421      39.575296      206.67596      0.0027870979 
  24540000   272.79335     -32.284971      40.430766      169.96168      0.0014785523 
  24550000   322.33172     -31.374721      37.591906      197.4183       0.003004856  
  24560000   336.66522     -32.174638      33.591085      201.11993      0.0035208544 
  24570000   307.30521     -34.169591      37.044545      185.16263      0.0035757429 
  24580000   313.36403     -31.126861      30.514865      185.26966      0.0028084412 
  24590000   312.0609      -25.656377      30.928887      190.38117      0.0045666957 
  24600000   326.85941     -27.840678      30.796553      196.84273      0.0042665094 
  24610000   297.6686      -31.582835      35.164766      180.15335      0.0019663113 
  24620000   273.70597     -25.667788      44.05922       180.74867     -0.00086094448
  24630000   293.15472     -25.690183      33.165663      181.36935      0.0016676647 
  24640000   286.76159     -26.235221      26.19954       170.0659       0.0027513742 
  24650000   337.28066     -31.292405      27.568457      196.3446       0.0037719867 
  24660000   314.82901     -28.882349      36.532857      194.40116      0.0022651312 
  24670000   286.71771     -33.36014       49.722333      186.43775      0.0013276551 
  24680000   293.13946     -37.539479      31.944128      168.28946      0.0011906865 
  24690000   299.54776     -35.856179      32.721337      174.55126      0.0039502427 
  24700000   299.49651     -29.964416      31.207198      178.89848      0.0024098237 
  24710000   290.98338     -26.342684      37.712331      183.97552      0.001814454  
  24720000   310.11428     -29.141871      46.361589      201.17368      0.00025097834
  24730000   297.29737     -28.343338      39.094217      187.10209      0.0012607828 
  24740000   293.01005     -27.606959      35.542587      181.74368      0.0018805991 
  24750000   308.45813     -29.308432      32.210125      185.87326      0.0028695574 
  24760000   276.8838      -25.61403       33.334945      171.96318      0.0014200399 
  24770000   300.20549     -25.240114      30.022468      182.85861      0.0031625358 
  24780000   295.0732      -21.855114      38.238274      191.41503      0.0030294777 
  24790000   297.73005     -20.601264      33.670432      189.67703      0.0019033487 
  24800000   307.4157      -20.379601      33.511175      195.48479      0.0017889394 
  24810000   289.10846     -18.699315      35.366158      188.16055      0.0023846651 
  24820000   344.56417     -20.328427      33.530983      217.59155      0.0041233766 
  24830000   281.25295     -27.376027      33.694526      173.15246      0.0010709378 
  24840000   268.10643     -20.596159      43.683967      182.1235      -0.00094508739
  24850000   317.10048     -14.780619      37.025152      210.34258      0.0025800288 
  24860000   330.83006     -17.542212      39.51825       218.21821      0.0031944359 
  24870000   273.47335     -12.390058      38.490205      188.3194      -3.9179653e-05
  24880000   293.61438     -14.951229      31.636482      190.85179      0.0023030372 
  24890000   292.76417     -20.018653      44.731329      198.37488      0.00172052   
  24900000   295.46462     -23.258801      34.422675      186.42793      0.0019149102 
  24910000   308.06762     -16.923003      44.104922      209.92184      0.0003314337 
  24920000   314.05813     -21.966383      37.418045      201.74504      0.0032369452 
  24930000   302.38232     -20.309595      35.188185      194.2461       0.0022936992 
  24940000   304.87928     -23.281809      36.191265      193.75811      0.0028117776 
  24950000   313.48795     -19.796345      38.702512      204.86133      0.0019370695 
  24960000   295.93193     -19.005883      36.44955       192.98492      0.0014847716 
  24970000   313.75255     -18.943044      34.614189      201.78326      0.002952973  
  24980000   305.77716     -14.240451      32.382346      199.52316      0.0024212308 
  24990000   289.774       -14.180837      40.199583      197.90723      0.0011899558 
  25000000   316.25751     -15.803153      39.552238      211.34709      1.9238294e-05
  25010000   339.64372     -10.281713      37.736198      228.92475      0.0029854837 
  25020000   330.0971      -22.376939      41.795709      215.22616      0.0026135691 
  25030000   291.07765     -20.36812       44.248242      196.54191      0.0011929521 
  25040000   339.95072     -26.436266      31.251003      206.46711      0.0040991336 
  25050000   283.17496     -30.068327      44.533902      182.43964      0.00066642386
  25060000   283.52311     -23.997888      32.620255      176.80295      0.0017949877 
  25070000   315.26763     -16.439474      34.376975      204.94833      0.0031345624 
  25080000   299.50706     -21.594597      38.430409      194.49777      0.0012054467 
  25090000   297.96011     -19.172955      43.562348      201.13373      0.0019779727 
  25100000   310.28164     -29.683022      36.740984      191.1112       0.00075523802
  25110000   333.39708     -26.188295      29.956194      201.53278      0.0035400914 
  25120000   307.57153     -30.414074      27.621782      179.65336      0.0022904559 
  25130000   315.03947     -24.118453      36.535794      199.29283      0.0013242619 
  25140000   296.68759     -22.702021      39.013849      192.30133      0.00095164492
  25150000   307.07688     -15.606702      38.103024      204.64855      0.00076653204
  25160000   290.3027      -19.136701      38.19677       191.26217      0.0024373416 
  25170000   319.32699     -18.99327       28.636491      199.06199      0.0031171709 
  25180000   314.00723     -25.810862      36.238256      196.69058      0.0014896762 
  25190000   318.3582      -20.838455      38.273145      206.27879      0.0019625895 
  25200000   251.08444     -15.398889      37.700128      171.23981      0.0010783307 
  25210000   310.75984     -18.210147      37.590735      203.71748      0.0012222028 
  25220000   316.28176     -15.368658      36.900054      209.14379      0.0022563583 
  25230000   275.96444     -17.847109      47.188797      193.03861     -0.00063632704
  25240000   306.02854     -16.055348      29.234104      194.70914      0.0031029149 
  25250000   321.31982     -19.209577      33.447592      204.83889      0.0038072027 
  25260000   302.57078     -17.207492      34.550723      196.82253      0.0012137009 
  25270000   335.35497     -18.701605      44.262964      224.48762      0.00093876459
  25280000   298.21692     -21.589062      42.128037      197.43564      0.0012316974 
  25290000   290.06557     -28.590216      38.55328       182.0245      -0.00026736432
  25300000   310.1001      -22.870718      38.957075      200.0319       0.00023757153
  25310000   320.36651     -30.030849      34.225948      194.23049      0.00360014   
  25320000   277.98028     -23.585822      26.18162       167.48847      0.0034016095 
  25330000   285.14198     -30.312871      32.34702       171.17501      0.0018894258 
  25340000   293.61986     -31.254083      36.493148      179.40885     -1.0598137e-05
  25350000   318.04664     -28.128124      39.526944      200.05811      0.0024119199 
  25360000   304.71647     -29.433897      38.994425      190.31261      0.0028123899 
  25370000   306.78561     -26.891122      38.902781      193.99112      0.0015166531 
  25380000   296.36593     -23.504094      31.458186      183.75279      0.0012700137 
  25390000   287.47475     -24.441499      31.191201      177.27432      0.00024664429
  25400000   326.17696     -26.188644      39.654633      206.94803      0.0011494914 
  25410000   307.13971     -28.43443       36.301652      190.05673      0.0010447601 
  25420000   313.54667     -26.780615      41.447273      200.65665      0.0010986677 
  25430000   290.15139     -20.831948      42.960976      194.24138      0.00029658014
  25440000   316.52482     -25.217874      39.707825      202.24652      0.00057751154
  25450000   285.26489     -22.139453      34.246372      181.32069      0.0018210924 
  25460000   318.72227     -25.280294      31.540211      195.31997      0.0029042469 
  25470000   324.52343     -20.480267      30.26178       202.28271      0.002517696  
  25480000   309.90008     -14.564441      28.918946      198.18141      0.0026908237 
  25490000   318.91482     -14.004429      35.88664       211.05649      0.0029045583 
  25500000   293.09145     -15.408996      30.277943      188.72528      0.0031993228 
  25510000   310.50613     -13.371479      39.842777      210.6577       0.00083583904
  25520000   309.28658     -13.547642      29.669821      199.58516      0.0022297729 
  25530000   291.73928     -15.038849      31.705709      189.72112      0.0027430728 
  25540000   293.40305     -15.438641      41.595661      200.19819      0.00084849547
  25550000   307.40435     -17.820633      37.471619      201.99747      0.0019549582 
  25560000   285.00566     -18.485419      38.977401      189.55198      0.0018237741 
  25570000   275.74027     -15.574449      48.844782      196.83428      0.0010919916 
  25580000   303.22983     -16.462483      31.320497      194.72825      0.0033632511 
  25590000   297.60839     -18.961508      30.720616      188.29481      0.0018336361 
  25600000   310.1929      -16.457808      48.930464      216.47325      0.00085077966
  25610000   291.39137     -19.422754      35.101515      188.52664      0.0022133529 
  25620000   302.15548     -21.71533       39.536827      197.05444      0.0024411791 
  25630000   289.93159     -9.0803275      34.227467      197.12911      0.0016095675 
  25640000   299.06886     -16.417363      37.901735      198.8864       0.0019740758 
  25650000   294.07415     -21.591772      32.294019      185.14151      0.0016498739 
  25660000   299.17367     -17.718319      40.766383      200.51226      0.00039092271
  25670000   280.26979     -17.285171      36.244384      185.20998      0.001717395  
  25680000   324.76174     -16.209619      39.092971      215.52591      0.0020692257 
  25690000   317.5508      -22.882797      29.91799       195.40036      0.0028708935 
  25700000   292.72251     -11.136857      33.944292      196.44492      0.0030779204 
  25710000   322.17624     -5.0252625      36.216378      222.30001      0.0030184789 
  25720000   303.3514      -7.0586437      45.265671      218.14937      0.0017229846 
  25730000   289.86137     -11.144665      36.056786      196.85243      0.0012527281 
  25740000   281.04622     -15.968626      34.645527      185.38824      0.0010326375 
  25750000   327.04985     -18.929694      49.42809       224.49822      0.0016134813 
  25760000   307.24687     -18.911089      35.55231       198.89429      0.0018493197 
  25770000   292.26131     -23.826781      35.077796      184.61493      0.0026397645 
  25780000   318.63331     -25.47811       38.814859      202.34404      0.00058527849
  25790000   327.43607     -19.855189      33.145776      207.51951      0.0046700019 
  25800000   307.09575     -19.851947      40.336439      202.64792      0.0010009182 
  25810000   274.21898     -18.43106       41.10401       185.33449      6.7916476e-05
  25820000   289.21801     -10.983863      44.430374      205.0052      -0.00019818114
  25830000   298.22265     -8.9904598      43.907751      211.81736      0.00025339324
  25840000   313.37898     -11.845805      42.164406      216.20912      5.5331015e-06
  25850000   316.84677     -14.471505      39.82631       213.30236      0.0010050417 
  25860000   288.33989     -10.385618      33.691536      194.34372      0.0034880183 
  25870000   315.93691     -15.729644      42.315917      213.99411      0.0017389702 
  25880000   313.25234     -20.673532      38.989572      204.13144      0.0019274791 
  25890000   272.82124     -19.682198      38.387924      180.53816      0.001558714  
  25900000   301.17139     -11.03728       40.473705      208.08563      0.002497701  
  25910000   276.96108     -11.481038      46.618368      199.42543     -0.0010049609 
  25920000   297.65697     -13.238447      33.620558      196.94663      0.0028410146 
  25930000   305.39585     -14.366098      38.754874      205.54386      0.0012756323 
  25940000   313.4814      -10.41125       31.648015      207.18804      0.00370972   
  25950000   310.96869     -14.308189      33.38763       203.54022      0.0011934077 
  25960000   281.22748     -10.611877      31.233062      187.44004      0.0008606214 
  25970000   310.05732     -7.5396537      39.45538       215.8359       0.0027540217 
  25980000   262.93372     -9.4796626      46.001861      192.48954     -0.0013691512 
  25990000   304.39474     -6.5145887      35.167594      209.21424      0.0019785665 
  26000000   327.26911     -2.5286903      39.329125      230.93032      0.0025640471 
  26010000   309.24762     -5.6049114      34.406101      212.24106      0.002489829  
  26020000   298.08325     -4.4202094      33.49207       205.88924      0.0025012594 
  26030000   290.52971     -11.387468      46.498018      207.44731     -0.00085566918
  26040000   285.32007     -12.517659      35.647347      192.37619      0.0018194752 
  26050000   314.89143     -9.9111815      46.197663      223.07416      0.001011291  
  26060000   298.33761     -14.748401      36.574639      198.7945       0.0020958144 
  26070000   296.10911     -17.014392      35.73307       194.36504      0.0015222854 
  26080000   309.32953     -13.224688      46.413013      216.67678      0.00029937888
  26090000   321.40287     -11.799669      33.521027      212.3715       0.0035828775 
  26100000   296.47053     -5.7332778      46.562581      216.69005      0.0017048501 
  26110000   300.16171     -9.2608049      40.773252      209.56273      0.0011354117 
  26120000   307.00147     -16.123094      32.45424       198.43864      0.0032961933 
  26130000   342.34887     -17.91309       34.895414      220.05724      0.0018085041 
  26140000   267.65249     -17.234693      40.726211      182.25794      0.00081202927
  26150000   314.39481     -19.145691      34.544692      201.89209      0.0028635703 
  26160000   273.76009     -20.285145      39.963622      182.06782      0.00045406357
  26170000   295.272       -18.068289      30.956338      188.03785      0.0016148768 
  26180000   293.20407     -19.101765      40.165136      194.98651      0.0018454084 
  26190000   322.44358     -22.515044      30.805113      199.55754      0.0038025702 
  26200000   296.05121     -10.8902        31.979528      196.70134      0.0017357482 
  26210000   327.30095     -12.234622      35.740887      217.65504      0.0016509099 
  26220000   269.66258     -11.76077       44.310089      192.50809      0.00033918439
  26230000   329.64537     -5.2254605      26.969395      217.28337      0.0030673086 
  26240000   298.20871     -1.5643555      34.663729      209.99118      0.003821674  
  26250000   337.62655     -0.36907934     50.84201       250.74665      0.0013514454 
  26260000   303.08578     -4.4253162      35.607469      210.96694      0.003244665  
  26270000   300.01548     -3.2684742      31.839514      206.53458      0.0030491359 
  26280000   311.91821     -7.0821632      41.523423      219.46528      0.0019666034 
  26290000   308.53922     -5.6148862      34.555383      211.96016      0.0033306975 
  26300000   289.0164      -0.71639786     38.388233      209.11093      0.0010329614 
  26310000   299.21068     -4.3698275      33.907693      207.02402      0.0013795998 
  26320000   315.35574     -6.5504884      34.667259      215.17987      0.0029671368 
  26330000   286.9059      -1.6407384      38.515545      207.06199      0.0016821356 
  26340000   292.61393      0.52798332     39.729041      213.83011      0.0011152239 
  26350000   301.8978      -3.6140524      31.242086      206.70813      0.0020654182 
  26360000   285.5254      -2.173231       30.211191      197.40626      0.001966574  
  26370000   284.01653     -2.9639642      44.953708      210.46301      7.4306935e-05
  26380000   302.47772      5.7373942      34.707457      219.86895      0.0012848714 
  26390000   299.26668      6.0503276      34.290517      217.86021      0.0016952715 
  26400000   319.64307      2.388495       33.256081      225.25083      0.0026846879 
  26410000   291.06573      1.5211695      34.783783      208.95967      0.0018010737 
  26420000   289.39029      0.95578319     35.421747      208.03841      0.0012317146 
  26430000   324.98913      0.67073151     34.678152      228.12632      0.0024249103 
  26440000   307.23158     -0.73974755     32.097818      213.60207      0.0030620566 
  26450000   295.00975     -6.4487011      31.440412      199.98595      0.0020503579 
  26460000   313.12833     -2.9544431      38.184212      220.97161      0.0011574386 
  26470000   309.51769     -7.9114404      38.459337      214.14797      0.00034300535
  26480000   285.8338      -6.7536025      40.660181      203.45782      0.00024398009
  26490000   342.48523     -12.138276      40.217803      231.23533      0.0012574995 
  26500000   285.52447     -10.355522      38.554654      197.56688     -0.00038804028
  26510000   307.29142     -10.863885      30.911644      202.32725      0.0027392833 
  26520000   276.25012     -9.6554783      44.334054      198.54496     -0.0013168444 
  26530000   269.29402     -7.8317514      39.4534        191.3618       8.4574763e-05
  26540000   298.736       -2.1288236      43.660931      218.73669      0.00030221365
  26550000   326.73569     -2.1195777      54.356269      246.05016      0.00039168683
  26560000   302.15682     -0.81466402     35.014209      213.43329      0.0031737407 
  26570000   299.37018      2.6126756      32.892236      213.08567      0.0047791202 
  26580000   288.81482     -4.8679397      34.758761      201.21034      0.0033903755 
  26590000   297.00714      0.1045821      39.725578      216.00921      0.002276202  
  26600000   308.82795     -5.8285275      33.871267      211.23367      0.0022366509 
  26610000   303.62991     -5.9160932      28.738095      202.92956      0.002724481  
  26620000   288.20361     -12.198263      35.868785      194.62749      0.0010583449 
  26630000   298.41481     -9.9070634      49.578649      216.68564      0.00067687528
  26640000   302.49435     -6.4013709      36.412516      209.44511      0.0020338375 
  26650000   316.14011      0.85302677     45.079061      233.46046      0.0018184215 
  26660000   303.47356     -0.3875105      49.230022      228.85732      0.0011401276 
  26670000   293.13721      5.0969771      41.357896      220.33835      0.0012806307 
  26680000   278.70978     -2.0865986      31.881049      195.11985      0.0021545724 
  26690000   307.37532      1.1770973      34.852974      218.35933      0.0016337954 
  26700000   290.30353      0.65818993     49.061413      221.9222      -0.00058996929
  26710000   287.63962     -1.0963837      35.829206      205.35524      0.0007380127 
  26720000   303.13142     -4.6513145      35.580136      210.74068      0.0013590285 
  26730000   313.02654     -6.4412571      38.530259      217.77046      0.0011316116 
  26740000   307.05801     -5.2021026      39.943894      216.88283      0.001092052  
  26750000   287.96757     -4.0785629      43.174327      209.91271      9.2180809e-05
  26760000   302.43935     -0.92027729     32.894749      211.37581      0.0020785928 
  26770000   293.71567     -3.7314373      38.497455      208.99263      0.0010301833 
  26780000   313.59815     -6.2187574      35.806156      215.60793      0.0027151282 
  26790000   298.20846     -8.748976       33.830685      201.97336      0.0018704745 
  26800000   281.38935     -10.296548      39.113043      195.73137      0.00098869811
  26810000   321.89148     -5.7620523      46.670104      231.84802      0.001338203  
  26820000   279.68919     -4.1183992      46.315196      208.10317      1.7387777e-05
  26830000   320.73574     -0.28040146     38.979459      228.95347      0.0039317683 
  26840000   286.47918     -3.1845118      39.438127      206.18768      8.695073e-06 
  26850000   285.23937     -5.5508629      38.413724      202.06149      0.0010925936 
  26860000   297.23362     -8.4043329      49.432298      217.34136     -0.00056964168
  26870000   330.73899     -12.899416      33.114224      216.40296      0.0020030523 
  26880000   271.89595     -6.6202452      42.602243      197.26557      0.0015541634 
  26890000   281.917       -6.1883914      46.264419      207.30389     -0.0016001099 
  26900000   273.88337     -10.115934      42.593944      194.94047     -0.00019264924
  26910000   319.63345     -8.3468371      39.907169      221.16088      0.000901447  
  26920000   305.08003     -4.1647254      32.422462      209.22548      0.0021069265 
  26930000   307.10128     -5.6777565      35.915847      212.4048       0.0014978228 
  26940000   314.06148     -6.4563827      32.191214      212.0302       0.0026806731 
  26950000   332.49791     -7.9402659      32.010204      221.30145      0.0021003314 
  26960000   296.34109     -1.5502878      41.614536      215.84821      0.00095564819
  26970000   298.40011     -7.2381086      44.629192      214.39642      0.0002408533 
  26980000   316.95248     -4.3632574      46.684104      230.3311      -0.0006196837 
  26990000   318.44493     -8.1130267      36.277068      217.05959      0.0023769014 
  27000000   291.87058     -3.7279751      33.545729      202.94989      0.0024444129 
  27010000   272.58558     -4.8657054      37.808733      194.63567      0.0010225851 
  27020000   302.54826     -11.097911      37.757362      206.12539      0.0018462316 
  27030000   318.2185      -7.738059       35.116658      216.13983      0.0016857058 
  27040000   305.39798     -8.9547804      36.537758      208.73932      0.0022820477 
  27050000   321.93321     -3.9249251      33.670806      220.71061      0.0037837094 
  27060000   297.63111     -11.349577      42.11533       207.31493      0.0019781966 
  27070000   325.88499     -11.385157      31.483801      213.40749      0.0034236908 
  27080000   304.05646     -6.8471042      27.539851      201.05332      0.003136137  
  27090000   339.54699     -8.6424591      36.783809      229.55424      0.0025694186 
  27100000   289.61089     -7.1884002      39.478542      204.08188     -0.00050269334
  27110000   319.26648     -4.1439102      37.968757      223.20772      0.001795432  
  27120000   292.73018     -3.4780982      48.893094      219.05703     -0.0010344485 
  27130000   326.2784      -2.2531326      38.371854      229.66093      0.0018799364 
  27140000   289.92797     -11.489544      46.70837       207.19865      0.00018862052
  27150000   297.17264     -8.2209708      39.535242      207.5915       0.0012556319 
  27160000   297.85544     -4.5607938      38.931727      211.05318      0.0012340471 
  27170000   299.86206     -10.157018      43.39535       211.11087      0.0014318354 
  27180000   295.92979     -13.642889      36.268243      198.16534      0.00077964544
  27190000   316.25123     -12.244927      40.431763      215.78112      0.00034051207
  27200000   292.03125     -11.42305       34.129467      195.93386      0.0012089501 
  27210000   313.74092     -9.549511       31.173036      207.72874      0.0017138363 
  27220000   317.35538     -10.744603      40.180336      217.68498      0.0012333019 
  27230000   307.44166     -7.2005077      36.608515      211.77662      0.0024424155 
  27240000   283.31589     -10.804802      35.124411      192.37727      0.000804068  
  27250000   354.27946     -8.0518947      36.537106      238.63713      0.0031721309 
  27260000   295.07572     -11.537538      48.368936      211.86477     -0.00077520462
  27270000   314.85278     -13.386326      37.639055      211.01748      0.0022713805 
  27280000   319.08896     -2.8236878      32.09771       218.5516       0.0019028295 
  27290000   291.41056     -5.757458       37.375351      204.47716      0.0017328414 
  27300000   283.31756     -3.223865       40.88139       205.71618     -0.00028001982
  27310000   296.32981     -5.2864083      41.14571       211.63657      0.0011544204 
  27320000   285.48301     -14.95868       47.091669      201.47614     -0.00076802298
  27330000   284.95823     -11.074972      42.504419      200.46131      0.00091172979
  27340000   297.26975     -5.8067507      41.18643       211.71451      0.0014069077 
  27350000   296.50425     -15.316502      37.387553      197.9518       0.0029240053 
  27360000   291.78343     -4.4167044      25.719904      194.38364      0.0021525486 
  27370000   305.0383      -3.79012        28.447453      205.60032      0.0035980837 
  27380000   310.10548     -4.260785       40.781083      220.46904      0.0010404286 
  27390000   298.93254     -4.4807504      38.037585      210.878        0.0020034108 
  27400000   309.2047      -11.657385      42.545991      214.30302      0.0017995247 
  27410000   325.05025     -6.6638912      43.351176      229.50098      0.0036029962 
  27420000   298.42612      0.66121549     52.845905      230.52789     -0.0017403652 
  27430000   300.7794      -1.9679831      35.204335      211.65304      0.0022306783 
  27440000   291.27646     -3.6053322      32.748236      201.92262      0.0017476319 
  27450000   288.82446     -5.3243423      39.750571      205.75147      0.00057922877
  27460000   304.68329     -9.8697208      35.510233      206.37291      0.0019608628 
  27470000   324.14856     -9.1306249      32.231771      215.37998      0.0025722808 
  27480000   292.43373     -15.854563      39.120476      196.73211      0.0016059939 
  27490000   293.10888     -13.417065      38.129902      198.57951     -5.1851792e-05
  27500000   316.27031     -13.431152      37.517133      211.69158      0.0020169661 
  27510000   314.1113      -12.063722      34.471861      208.73306      0.0012410021 
  27520000   285.34114     -11.165297      36.97629       195.06999     -2.0942749e-05
  27530000   309.83557     -16.218133      36.059214      203.62972      0.00095155199
  27540000   300.6286      -12.84211       40.106384      205.59151     -1.5709957e-05
  27550000   301.80679     -14.828429      45.469876      209.66756      0.0014676935 
  27560000   301.84174     -17.741344      30.600856      191.90636      0.0027236964 
  27570000   275.00849     -18.456307      38.252838      182.9264      -0.00084126374
  27580000   301.21372     -19.206524      35.550985      195.01878      0.0005564658 
  27590000   304.47857     -23.543284      38.151634      195.21931      0.00036742692
  27600000   310.19613     -24.801439      43.678916      202.87999     -0.00055460549
  27610000   293.14738     -22.213378      35.256996      186.93313      0.0010324434 
  27620000   285.15527     -13.306322      39.362863      195.20528      0.000194164  
  27630000   317.24801     -11.331307      46.585364      223.43961      0.00058651115
  27640000   296.71985     -11.739088      35.042796      199.31234      0.0016493771 
  27650000   337.78141     -18.035939      36.042802      218.37244      0.003082684  
  27660000   283.76056     -20.808368      42.364959      189.87802      0.0011367376 
  27670000   327.03444     -22.193716      40.360314      212.15728      0.0016054381 
  27680000   304.44131     -18.909633      42.980687      204.65992      0.00016315585
  27690000   273.01156     -18.663268      39.832919      183.11498      0.002125615  
  27700000   267.94161     -20.448461      36.348378      174.83784      0.001937431  
  27710000   316.06739     -13.261611      43.186038      217.40966      0.0025358036 
  27720000   285.16261     -13.490156      39.830846      195.49379      0.00050422806
  27730000   323.00227     -13.435333      35.06679       213.23033      0.0032286832 
  27740000   295.11347     -15.032725      31.896854      191.91989      0.001414101  
  27750000   309.86894     -16.377442      30.256496      197.68748      0.001833615  
  27760000   284.6731      -15.988993      32.883838      185.75758      0.0029515611 
  27770000   307.88986     -10.228032      34.355726      206.76217      0.0028089369 
  27780000   315.28152     -14.171197      49.834727      222.6826       0.00056742079
  27790000   301.77497     -12.352594      49.181547      215.83619     -0.00012710785
  27800000   265.43514     -15.699077      41.334867      183.08693     -0.00092167271
  27810000   299.91114     -8.7613974      49.491632      218.63189     -0.0019832302 
  27820000   300.55894     -8.6680671      42.049074      211.66692      5.867386e-05 
  27830000   309.8191      -11.022749      29.366088      202.12221      0.003700675  
  27840000   326.06309     -7.2703046      40.226361      226.37055      0.0032694954 
  27850000   313.383       -11.429284      37.15944       211.62306      0.0018692201 
  27860000   293.29366     -7.6736319      43.38824       209.6909       0.00043499168
  27870000   313.52436     -9.9619685      34.15864       210.17343      0.003110409  
  27880000   329.48189     -10.980834      37.444903      221.90653      0.0023815827 
  27890000   314.35449     -11.067954      34.750386      210.1516       0.0024914497 
  27900000   290.24214     -21.57344       35.361837      185.95458      0.0015444776 
  27910000   300.26216     -18.320622      38.540851      198.33009      0.00028619   
  27920000   354.9907      -18.917954      36.129561      227.78542      0.0023140243 
  27930000   313.15732     -18.1228        42.333636      209.96987      0.0022404411 
  27940000   298.09996     -24.650839      38.409151      190.58561      8.9988831e-05
  27950000   303.16333     -26.829885      41.667101      194.66801      0.00089658364
  27960000   311.02516     -18.994235      32.386731      197.88677      0.0038350635 
  27970000   321.06854     -26.371652      44.57166       208.65183      0.0014366467 
  27980000   311.48905     -18.105515      35.650863      202.3148       0.0014683625 
  27990000   333.33996     -11.328146      46.088586      232.49144      0.0014404751 
  28000000   269.6291      -12.05471       45.325318      193.20952     -0.00073092267
  28010000   290.54084     -14.833729      45.35345       202.86309     -0.00032913685
  28020000   295.67832     -17.402039      47.278719      205.2675      -0.00040252406
  28030000   310.06545     -16.525896      34.05568       201.45478      0.0013806452 
  28040000   293.81159     -11.342789      41.815956      204.75668      0.0021091707 
  28050000   337.86254     -19.835317      35.167051      215.74544      0.0032624796 
  28060000   335.22589     -17.036767      33.466254      215.27918      0.0023126957 
  28070000   304.28253     -19.643231      41.40642       202.25787      0.00042686666
  28080000   315.63786     -18.421005      43.960509      212.76995      0.00050100237
  28090000   286.86647     -13.18397       36.354323      193.33415      0.00054465255
  28100000   297.48459     -17.186933      43.19279       202.46812      0.0013103849 
  28110000   281.24798     -19.730957      37.353499      184.45355      0.000689871  
  28120000   305.83088     -24.296983      35.445074      192.56122      0.001219252  
  28130000   323.18909     -24.253411      42.814197      210.27048      0.002669822  
  28140000   318.86578     -23.625245      36.116245      201.63618      0.0025907798 
  28150000   258.24383     -22.119989      30.885758      161.95115      0.0014798757 
  28160000   308.4         -20.568046      40.541028      202.91007      0.0028646736 
  28170000   282.48666     -21.194654      31.655006      178.02613      0.0016320628 
  28180000   283.84357     -24.268697      32.466825      176.56879      0.0027163654 
  28190000   295.95171     -22.532185      38.004369      191.02518     -4.7045864e-05
  28200000   281.72676     -22.817863      44.815035      189.11219     -0.00041237112
  28210000   311.06437     -28.051622      40.080445      196.54636      0.0022100281 
  28220000   272.24277     -24.322316      34.209082      171.37606      0.00058096638
  28230000   283.26829     -22.611342      35.436796      180.85488      0.00073294059
  28240000   294.04483     -19.800349      42.914711      197.53623     -0.00066835079
  28250000   280.38299     -22.694171      44.686308      188.31006     -0.00063813013
  28260000   307.82607     -25.774437      44.075582      200.89779      0.00064998546
  28270000   308.35312     -21.021906      31.032451      192.91982      0.0025264115 
  28280000   322.41877     -18.951834      35.904465      208.20539      0.0011488595 
  28290000   274.40849     -22.810024      38.351058      178.31499      0.0024281427 
  28300000   303.76672     -22.675624      47.159787      204.67287     -0.00062415383
  28310000   314.41343     -20.939915      46.722706      212.28693      0.0014257346 
  28320000   313.16434     -17.344179      33.100498      201.51952      0.0023110566 
  28330000   271.02553     -18.370548      44.906335      187.30304      0.000718236  
  28340000   305.98139     -21.190291      47.933099      208.24522     -0.00012490506
  28350000   284.54394     -20.566478      34.482357      182.70199      0.00090435318
  28360000   312.95151     -18.734759      32.812814      199.71501      0.002399189  
  28370000   294.15937     -19.901061      35.011715      189.60046      0.00033195377
  28380000   299.17246     -9.6675573      37.244741      205.04066      0.0008312324 
  28390000   288.38748     -11.732669      40.598502      199.93187      0.0006206223 
  28400000   303.27703     -18.069525      34.737087      196.5658       0.0014849793 
  28410000   287.33721     -16.1568        32.867308      187.15354      0.001644362  
  28420000   355.55714     -11.935086      40.873239      239.84796      0.0042881625 
  28430000   323.26545     -13.507279      43.082667      221.33038      0.0027028564 
  28440000   313.49535     -14.697282      37.195106      208.45737      0.0026715106 
  28450000   305.64622     -10.364227      40.656634      211.596        0.00068954413
  28460000   309.34757     -17.403         34.767584      200.86375      0.0035308252 
  28470000   305.12347     -15.358171      33.458272      199.09361      0.0034580592 
  28480000   317.05836     -16.738943      33.81215       205.14626      0.0014526742 
  28490000   278.55915     -11.724482      44.707879      198.21945     -1.8056403e-05
  28500000   264.39454     -16.415638      35.424098      175.84233      0.0023510648 
  28510000   328.78269     -16.701075      40.621666      218.9483       0.0020091266 
  28520000   306.87056     -21.170672      33.637759      194.49693      0.0021493176 
  28530000   310.49581     -17.270817      51.453858      218.36332      0.00010778375
  28540000   316.37609     -24.994757      39.302999      201.97659      0.0020486628 
  28550000   307.5033      -24.808537      31.846003      189.44264      0.0019407954 
  28560000   278.72491     -20.190322      34.362301      179.50636      0.0022309777 
  28570000   305.00614     -17.793522      35.938871      199.06926      0.0030100754 
  28580000   306.45744     -19.58478       32.444483      194.64449      0.0027889023 
  28590000   309.12745     -23.393394      26.836651      186.81185      0.003714663  
  28600000   277.37072     -20.10696       36.124026      180.54816      0.0012094797 
  28610000   280.75533     -22.789869      29.476671      173.22559      0.0023282011 
  28620000   280.15757     -21.159313      30.76574       175.79063      0.0014129786 
  28630000   293.24003     -21.270965      32.867913      185.54142      0.0036531693 
  28640000   303.03604     -11.161184      46.614677      215.20877      0.00044148165
  28650000   281.34632     -14.935018      40.755554      192.70989      0.001977941  
  28660000   279.38726     -11.701702      37.237253      191.26282      0.00089673938
  28670000   275.31304     -9.4697441      29.375145      183.21592      0.0017163756 
  28680000   313.9946      -13.045854      39.674431      212.88427      0.0044978446 
  28690000   257.66248     -15.848576      36.614975      173.60694      0.00036718956
  28700000   289.85811     -24.683989      32.959689      180.21408      0.002567764  
  28710000   315.13389     -16.80922       38.137928      208.26021      0.0027192081 
  28720000   288.58251     -18.621099      36.25683       188.81745      0.002662699  
  28730000   312.66684     -22.52174       25.414796      188.36115      0.0061180633 
  28740000   278.78193     -17.472955      29.517405      177.41265      0.0016879129 
  28750000   281.45374     -23.47608       31.868898      175.34589      0.0024585754 
  28760000   331.56904     -21.663326      33.220498      208.23769      0.0028145423 
  28770000   321.86979     -13.204273      34.009824      211.73266      0.0031686116 
  28780000   301.82498     -12.242964      37.501637      204.29558      0.0010613166 
  28790000   276.27522     -11.281661      43.859572      196.45918      0.00021191734
  28800000   313.6228      -9.2003111      34.687999      211.52283      0.0025724584 
  28810000   320.13656     -6.5929035      39.233551      222.53964      0.0026188566 
  28820000   280.80677     -10.752327      37.940113      193.75708      0.0014091807 
  28830000   284.15721     -12.317713      39.538333      195.77734      8.971017e-05 
  28840000   324.4484      -9.356016       32.011196      215.11187      0.0040740983 
  28850000   322.79393     -11.123336      38.053334      218.40529      0.001457921  
  28860000   307.92108     -18.224367      33.312834      197.74146      0.0017898752 
  28870000   324.81816     -15.668575      31.220592      208.22804      0.0036436634 
  28880000   321.01513     -15.383785      38.113302      213.14966      0.0035725369 
  28890000   282.40157     -11.908291      39.032555      194.63956      0.00074615806
  28900000   323.28628     -15.29825       33.938673      210.40776      0.0023967349 
  28910000   305.37406     -9.4542135      47.15638       218.84432      0.00142994   
  28920000   302.70378     -6.2707348      49.352805      222.64026      0.00075059657
  28930000   292.84829     -15.498186      39.57516       197.78908      0.00048333397
  28940000   313.25832     -20.289359      39.847364      205.37695      0.0014018326 
  28950000   316.60641     -13.579843      45.296691      219.52182      0.001083615  
  28960000   305.46489     -16.620465      39.203408      203.77897      0.0017220086 
  28970000   324.10647     -11.446288      37.507219      218.31479      0.0034126621 
  28980000   293.85674     -5.2273449      33.440738      202.52369      0.0018751678 
  28990000   280.18155     -6.966469       39.873124      199.10508      0.0013333432 
  29000000   301.20847     -4.3557239      35.578686      209.89416      0.0020926348 
  29010000   320.64437      2.3377665      40.15114       232.68912      0.0029741701 
  29020000   299.29892     -0.75511583     33.565845      210.34922      0.0032248166 
  29030000   301.20446     -0.54703962     31.969809      210.09159      0.0028868434 
  29040000   334.10189     -5.2935409      30.613594      223.50301      0.0040465992 
  29050000   320.04469     -4.7263076      28.69353       213.81171      0.0042242193 
  29060000   291.62287     -6.1814796      30.467155      197.27088      0.0022603225 
  29070000   304.68124     -3.6843505      35.302255      212.34909      0.0035322924 
  29080000   303.98194      4.4949622      41.214504      226.02584      0.0013158627 
  29090000   288.84024     -6.082524       32.928702      198.18078      0.0029849838 
  29100000   272.84451     -9.4530337      33.051273      185.44447      0.0013683393 
  29110000   301.61238     -12.176479      32.469681      199.20399      0.0029390379 
  29120000   310.24221     -10.679417      32.236845      205.58727      0.003347271  
  29130000   284.41325     -10.891083      34.190028      192.00753      0.0016433018 
  29140000   307.9854      -16.849993      34.61296       200.45412      0.0024282719 
  29150000   305.81789     -13.618031      34.033982      201.82138      0.0027771428 
  29160000   314.55442     -10.479944      40.459615      216.56744      0.0031877418 
  29170000   290.61688     -12.260785      31.082627      191.21031      0.001272876  
  29180000   282.92486     -13.968661      33.656447      187.5135       0.0018376525 
  29190000   276.01856     -13.043291      38.306734      188.99246      0.00058944022
  29200000   309.23063     -9.7313335      37.710325      211.40879      0.002786097  
  29210000   275.15587     -10.274729      33.519019      186.46158      0.002186917  
  29220000   307.85053     -15.919796      28.739428      195.43078      0.0042779383 
  29230000   321.46113     -6.36174        44.915382      229.23834      0.0004009808 
  29240000   336.22893      0.43211342     30.947407      230.8242       0.0037758449 
  29250000   327.02162      1.327562       44.383149      239.69379      0.0032249661 
  29260000   321.44412      5.321163       44.424678      240.42045      0.0012753681 
  29270000   307.20418      0.6513567      35.39402       218.27312      0.0016244758 
  29280000   320.50268     -0.29074949     38.636716      228.46213      0.0022177048 
  29290000   309.30441      6.3416353      30.509497      220.3247       0.0041472651 
  29300000   287.25791      2.7063276      41.759006      214.86133      0.0017813178 
  29310000   303.81173     -0.48057771     30.782065      210.51689      0.0016278343 
  29320000   297.3593      -3.3912008      34.872999      207.86975      0.0023565817 
  29330000   312.7781      -2.2924125      46.998386      230.24006      0.0021593665 
  29340000   300.27333      3.4564758      27.32302       208.89599      0.0039066835 
  29350000   302.01825      1.1647404      36.323538      216.63982      0.0022670634 
  29360000   301.65893     -0.79258322     32.482986      210.62881      0.0034771522 
  29370000   286.67667     -5.7919391      30.280829      194.5401       0.0036801258 
  29380000   295.79578     -10.304714      38.353189      203.50897      0.001574599  
  29390000   298.81597     -14.241356      39.091444      202.1021       0.0014770462 
  29400000   315.65552     -21.016698      39.584725      205.80894      0.001921845  
  29410000   332.64835     -15.073944      37.517559      219.76436      0.002395452  
  29420000   316.24788     -15.612772      40.682347      212.66187      0.0014443272 
  29430000   288.55047     -11.586799      34.637914      194.21383      5.6966403e-05
  29440000   286.44204     -9.4488024      40.36625       200.82948      0.0011606473 
  29450000   262.36478     -17.720763      37.231884      175.14098      0.00021806482
  29460000   343.77825     -20.15156       32.371489      216.14272      0.0036183334 
  29470000   285.61603     -15.98298       40.330779      193.76986      0.00099542981
  29480000   281.03638     -13.184536      33.443265      186.96423      0.0015887863 
  29490000   316.65561     -20.302376      35.632763      203.16454      0.0026237187 
  29500000   283.23603     -18.114161      24.748132      174.64426      0.0032152931 
  29510000   328.52324     -22.18116       42.719082      215.41173      0.0018632376 
  29520000   316.78897     -20.176315      24.342768      192.07971      0.0043480027 
  29530000   302.72713     -22.430459      27.403345      184.54493      0.0032305362 
  29540000   294.76892     -16.895333      31.422807      189.37885      0.0026983532 
  29550000   306.2862      -21.571244      37.150972      197.26295      0.0020839269 
  29560000   283.05924     -14.578582      36.387881      189.71472      0.0022168387 
  29570000   279.10394     -11.43496       33.7012        187.82545      0.0011807816 
  29580000   318.07686     -22.435456      28.817363      195.05912      0.0034189241 
  29590000   293.44606     -21.007473      33.899986      186.9592       0.0041999878 
  29600000   315.60849     -14.984078      39.067444      211.29639      0.00067259838
  29610000   286.80915     -18.0762        40.280961      192.33456      0.00045632203
  29620000   305.88513     -17.809724      31.030554      194.66614      0.0044102291 
  29630000   272.01341     -24.24041       29.553255      166.66608      0.0015379002 
  29640000   306.79138     -26.560356      40.563972      195.98649      0.0011565042 
  29650000   336.26877     -19.006102      34.390193      214.8524       0.0020070843 
  29660000   310.93273     -28.269222      31.41397       187.5842       0.001670567  
  29670000   284.22693     -13.160839      36.334835      191.77207      0.00098853074
  29680000   302.08737     -11.808087      41.730164      209.11462      0.00040082002
  29690000   310.51449     -10.461001      44.070574      217.80093      0.0010499066 
  29700000   314.73121     -10.30736       34.527256      210.91253      0.0010221035 
  29710000   315.65486     -9.4206754      40.529847      218.3497       0.0018653898 
  29720000   287.29715     -8.5552241      40.384354      202.2484      -0.00056375839
  29730000   297.27312     -14.755495      38.728184      200.30952      9.947422e-05 
  29740000   302.99153     -13.447397      35.681766      201.96325      0.0017092316 
  29750000   326.39796     -17.5809        32.23424       208.26647      0.0038102239 
  29760000   298.93347     -7.9842401      33.394658      202.73213      0.0024948952 
  29770000   326.32631     -8.6611957      34.38077       219.29021      0.0023305214 
  29780000   308.3806      -11.416022      46.500855      218.01041      0.00034988409
  29790000   274.06726     -16.64275       39.959208      185.888       -0.00016128013
  29800000   278.16546     -17.844811      31.327518      178.48523      0.0015132894 
  29810000   307.17489     -22.020267      39.000345      199.19045      0.0036050052 
  29820000   282.2028      -24.385519      31.357647      174.36952      0.0015943942 
  29830000   313.92282     -15.926466      36.546281      206.83293      0.002088704  
  29840000   331.10858     -12.861329      36.036717      219.58277      0.0042813017 
  29850000   272.39755     -15.944444      27.912652      173.54931      0.0017703369 
  29860000   297.04447     -13.300712      34.780183      197.68066      0.0045325475 
  29870000   295.06252     -7.258569       44.323516      212.09049      0.0016056484 
  29880000   318.53106     -22.178118      40.871266      207.63978      0.0016911171 
  29890000   294.12031     -29.241727      34.488458      179.71337      0.00093694294
  29900000   278.16985     -25.856413      37.635283      176.78399      0.00067660275
  29910000   279.08351     -22.566365      35.996629      178.97736      0.00064425404
  29920000   315.34193     -21.361596      38.602211      204.29552      0.0022885269 
  29930000   289.46981     -23.947022      30.308964      178.06999      0.0010761425 
  29940000   291.30638     -15.903688      40.454837      197.34862      0.00092121997
  29950000   299.95045     -12.920276      30.478646      195.48334      0.0023669693 
  29960000   326.06523     -7.2149216      38.368379      224.56922      0.0035774748 
  29970000   299.49672     -5.6919059      37.72228       209.6862       0.00013830959
  29980000   296.98887     -13.424629      29.695433      192.43902      0.0037553849 
  29990000   302.23922     -6.2123218      31.047273      204.11757      0.0033621216 
  30000000   293.00611     -7.5673999      34.372072      200.61038      0.0027959116 
  30010000   292.34106     -22.000414      32.68022       184.09103      0.0011030013 
  30020000   290.53806     -18.635846      46.788927      200.4948       0.0014261749 
  30030000   304.50102     -15.79911       40.905399      205.73057      0.00025554712
  30040000   303.70696     -15.970599      37.766282      201.94894      0.0030978975 
  30050000   255.97232     -11.984846      33.022862      172.87598      0.0028099535 
  30060000   320.91471     -14.780904      42.338082      217.91775      0.002202606  
  30070000   279.27451     -12.892732      48.521804      201.28946     -0.00045042566
  30080000   303.25803     -15.112448      35.923618      200.69813      0.0029808726 
  30090000   317.43213     -12.608498      37.833757      213.52003      0.0024111295 
  30100000   350.855       -13.592147      31.933471      226.46191      0.0054744874 
  30110000   333.54013     -9.4176527      49.018995      237.45108      0.0014918607 
  30120000   306.33482     -9.9315251      35.916419      207.69695      0.0031352617 
  30130000   291.89825     -2.6598102      35.392599      205.88134      0.0015133408 
  30140000   263.39665     -10.349249      32.112757      178.00545      0.0010891469 
  30150000   275.03658     -7.7738984      42.911221      198.28385      0.0004769311 
  30160000   293.45856     -14.309503      33.527267      193.29187      0.0027466068 
  30170000   306.40209     -13.815826      42.892187      210.82832      0.0035253559 
  30180000   264.35001     -6.6488734      36.30077       186.45935      0.0010117249 
  30190000   306.5258      -9.5841949      31.938728      204.17988      0.0023337082 
  30200000   309.90456     -10.959826      45.959468      218.8292       0.00055482468
  30210000   322.48976     -7.2313709      36.051881      220.11537      0.0023088987 
  30220000   325.53287     -11.49292       37.685491      219.29255      0.0033692811 
  30230000   301.21372     -13.232682      43.569397      209.01103      0.0012195223 
  30240000   311.98909     -7.84779        41.194634      218.41291      0.00065777586
  30250000   289.79554     -14.508581      43.417297      200.80998      9.3991287e-05
  30260000   312.43338     -17.573372      35.737587      203.49382      0.0023518941 
  30270000   273.55287     -10.539852      34.100157      185.82672      0.0019523861 
  30280000   307.72094     -12.496635      36.63333       206.67097      0.0014309875 
  30290000   310.85321     -9.0532488      41.280225      216.61925      0.00080519092
  30300000   289.02259     -19.318861      33.198681      185.32259      0.0024638885 
  30310000   301.5007      -21.293423      41.74462       199.29574      0.00046378366
  30320000   333.46653     -21.439427      36.90875       213.2754       0.0035196212 
  30330000   273.9043      -20.850785      37.808306      179.4324      -0.00063501167
  30340000   317.82436     -11.373801      28.238758      205.39239      0.0037101324 
  30350000   306.84871     -17.950982      34.185444      198.25135      0.0030097901 
  30360000   328.96343     -20.917495      33.598253      207.81568      0.0038583996 
  30370000   333.33435     -15.482689      39.56446       221.80944      0.00099890096
  30380000   309.12664     -18.858247      39.890884      204.40075      0.0017169493 
  30390000   295.79388     -14.189779      39.805575      201.07516      0.00096573149
  30400000   313.48968     -9.4998228      45.505181      221.96154      0.0017124216 
  30410000   316.77567     -17.696043      37.834407      208.04374      0.0028322463 
  30420000   299.69911     -14.732638      31.583958      194.6272       0.0013063992 
  30430000   336.13795     -18.451675      31.70109       212.64013      0.0030120109 
  30440000   292.54527     -13.893245      32.393223      192.03233      0.0016431297 
  30450000   309.36092     -6.4941034      39.312544      216.32552      0.0020403379 
  30460000   308.53773     -2.0318944      35.713597      216.70049      0.0023766735 
  30470000   286.78405     -6.5197878      33.396823      196.99194      0.0015422937 
  30480000   292.79076     -10.627672      36.767645      199.81795      0.0025328092 
  30490000   305.67086     -8.5921953      31.538348      204.26436      0.002206721  
  30500000   325.85082     -12.832628      38.555715      219.01167      0.0022976723 
  30510000   294.96889     -15.607684      32.124349      191.48666      0.0016091456 
  30520000   309.5331      -9.8913064      37.464689      211.1826       0.0017984146 
  30530000   323.84598     -5.913578       31.51059       217.69636      0.0034811755 
  30540000   306.59669     -7.052689       30.913986      205.72869      0.0038476495 
  30550000   292.56474     -4.185734       39.463488      208.82165      0.00091959584
  30560000   316.349       -17.938747      45.383238      215.09677      0.001688544  
  30570000   309.7213      -13.710729      35.853021      205.86314      0.0013783889 
  30580000   284.95801     -14.07439       41.73031       196.68765      0.00049043746
  30590000   323.76663     -11.244762      44.307671      225.11519      0.00083832843
  30600000   310.40577     -8.1170046      28.322043      204.33191      0.0034408697 
  30610000   327.72211     -10.403592      33.630942      217.62595      0.0034258447 
  30620000   302.72174     -11.42313       39.91813       208.06384      0.0013392932 
  30630000   299.8445      -8.1950241      45.585614      215.25271      0.00092844655
  30640000   299.97927     -14.378018      37.869493      201.43354      0.00088070983
  30650000   254.05798     -9.6571727      36.901564      177.94681     -0.00023105196
  30660000   312.60987     -10.698576      40.498478      215.2342       0.0013624782 
  30670000   294.01126     -10.47653       44.639634      208.56505      8.9095419e-05
  30680000   298.91482     -15.719859      35.359521      196.95031      0.0019353329 
  30690000   303.94327     -10.26583       32.217951      202.24555      0.0034985971 
  30700000   291.64067     -11.222402      36.492489      198.26585      0.00053271258
  30710000   318.92629     -7.8309648      36.874018      218.22413      0.0025511683 
  30720000   309.93412     -11.322684      35.065152      207.58956      0.0014212168 
  30730000   282.74736     -7.5389988      45.553632      205.73505      0.00151334   
  30740000   280.45437     -3.9162858      37.435098      199.87907      0.0016585585 
  30750000   321.76159     -8.4965739      41.2891        223.65545      0.00012983111
  30760000   311.74968     -11.559885      41.929977      215.29414      0.00080280168
  30770000   304.03177     -13.401336      36.651541      203.59614      0.00173647   
  30780000   271.40431     -13.490625      27.878041      175.37935      0.0023445166 
  30790000   310.03061     -10.722099      32.383991      205.56622      0.003107234  
  30800000   270.51616     -8.8756262      40.290264      191.87974      0.00033431754
  30810000   313.75895     -11.122221      30.279981      205.27367      0.0034519944 
  30820000   285.13643     -10.010532      30.909605      190.03664      0.00093672016
  30830000   285.18653     -5.1398088      38.626034      202.65352      0.0013218346 
  30840000   336.2929      -7.3881157      37.091015      229.18552      0.0045836524 
  30850000   297.95162     -8.7476488      28.196087      196.18774      0.0030757986 
  30860000   300.0488      -17.760475      39.390251      199.61308      0.001487279  
  30870000   320.17627     -14.741624      31.728469      206.90939      0.0045561731 
  30880000   307.54491     -14.935155      41.746608      209.24131      0.00093617207
  30890000   295.97213     -19.391887      43.089086      199.2623       0.00018655146
  30900000   307.89124     -18.403837      39.320395      203.55185      0.0012763227 
  30910000   298.99591     -16.422245      37.737262      198.67377      0.0017051031 
  30920000   282.00393     -16.669184      30.876498      181.48674      0.0018550229 
  30930000   298.3252      -15.646792      35.704256      197.01836      0.00067945844
  30940000   302.38966     -14.440503      45.723831      210.65519      0.00079686139
  30950000   334.20503     -16.438561      37.367346      219.17293      0.0024283538 
  30960000   320.88098     -18.447602      35.349724      207.24269      0.00207866   
  30970000   317.67644     -19.340367      35.958541      205.05787      0.0013218152 
  30980000   278.88785     -14.692461      36.862281      187.60085      0.0011198998 
  30990000   284.21965     -6.273617       41.575321      203.89546      0.00019471949
  31000000   332.49402     -11.393983      38.035301      223.87052      0.0015814373 
  31010000   302.43159     -15.158907      44.673178      208.911       -0.00044092824
  31020000   310.50087     -10.662228      36.968848      210.4899       0.00082375074
  31030000   286.69449     -8.8472803      46.139052      207.35355      0.00090256952
  31040000   297.65089     -8.8218155      47.267907      215.007       -0.00053615592
  31050000   306.37635     -12.431821      34.382202      203.68707      0.00035489461
  31060000   298.17573     -11.326617      30.689808      196.23543      0.00084214315
  31070000   275.98551     -5.0368711      35.606409      194.27895      2.9173624e-06
  31080000   297.21102     -10.056659      41.668449      207.91178     -0.00017074401
  31090000   279.82905     -7.5348625      42.840758      201.29523     -0.00025156934
  31100000   286.38775     -15.733579      35.746019      189.89227      0.0014837135 
  31110000   311.01851     -10.917547      41.535442      215.10823      0.0011791502 
  31120000   274.86535     -23.972041      40.038418      179.11133      0.0009041996 
  31130000   298.42968     -26.917226      47.696212      197.80186      0.00012373503
  31140000   307.7502      -22.80057       42.123073      201.87414      0.00077012537
  31150000   305.28165     -20.536777      37.521231      198.07179      0.0030656408 
  31160000   308.33278     -20.563272      41.048087      203.38202      0.0020400648 
  31170000   296.46208     -17.332115      48.594369      207.11799     -0.0019609358 
  31180000   294.12419     -17.544317      33.252354      190.17698      0.0023381694 
  31190000   276.22144     -16.613795      42.886026      190.1216      -0.00023451275
  31200000   313.64835     -18.76426       35.392917      202.67896      0.0023029585 
  31210000   324.35911     -18.46165       37.624197      211.56628      0.0019453366 
  31220000   295.19434     -18.160243      35.093815      192.0373       0.0010097628 
  31230000   299.6246      -12.265412      34.319407      199.78567      0.0019825521 
  31240000   308.30045     -8.2773715      33.770276      208.37093      0.0023191798 
  31250000   292.42801     -18.116817      42.875055      198.22104      0.00084264035
  31260000   261.67728     -22.682231      42.079425      174.61924      0.00037756813
  31270000   275.4655      -17.637534      36.264411      182.02783      0.00056302409
  31280000   283.00758     -23.083816      51.752999      196.54396     -0.00069718777
  31290000   299.64416     -17.467689      40.419755      200.69535      0.0010422467 
  31300000   286.4327      -15.738306      39.390401      193.55859      0.00051626625
  31310000   292.22778     -15.96258       33.657969      191.03942      0.0036298811 
  31320000   309.83422     -11.310229      34.383318      206.86092      0.0021560962 
  31330000   291.52709     -15.600243      42.340792      199.66894      0.0025485257 
  31340000   291.90905     -8.1637241      31.778545      196.76978      0.0032070216 
  31350000   295.8355      -6.867533       36.734936      205.35146      0.0024951638 
  31360000   288.04847     -7.8710165      31.895754      194.88968      0.0017094083 
  31370000   286.81283     -1.2220865      46.483036      215.39293     -0.00049603243
  31380000   284.79223     -0.28527966     43.420879      212.06899     -0.0005671357 
  31390000   271.00435     -5.4020694      33.675305      189.02792     -8.0181356e-05
  31400000   327.70405     -5.8617689      31.340455      219.86657      0.00288888   
  31410000   317.55395     -5.9174182      40.94634       223.39595      0.001016879  
  31420000   311.79702     -11.716923      43.14972       216.38493      0.0010964065 
  31430000   297.43409     -8.8190374      38.942821      206.5561       0.0018707324 
  31440000   306.80643     -5.221313       32.567718      209.33821      0.0031163364 
  31450000   298.26789      0.93821812     36.911098      214.77622      0.0039251803 
  31460000   325.50439     -2.5626254      35.736182      226.25664      0.0019377426 
  31470000   290.62233      4.3610062      34.338628      211.09134      0.0016711446 
  31480000   330.78123     -1.4942359      32.33413       227.0531       0.0039095919 
  31490000   288.1613      -0.052669454    36.065301      206.9445       0.00093415621
  31500000   288.70555     -2.83357        31.153174      199.57431      0.0017211955 
  31510000   296.1189       3.1525172      40.290222      219.0949      -0.0001683061 
  31520000   275.57941      0.54346788     40.938357      204.95035      0.00085967327
  31530000   301.46495     -3.2073472      29.318953      204.93495      0.0034296001 
  31540000   301.55611     -4.8266157      33.725891      207.77669      0.0020202738 
  31550000   293.62913     -6.0218536      34.472013      202.62544      0.0018503401 
  31560000   307.8359      -5.6597211      38.386979      215.32973      0.0019215985 
  31570000   304.71388     -4.3963772      35.546112      211.90028      0.0034535138 
  31580000   315.99346     -10.835304      38.386754      214.99283      0.0018686353 
  31590000   320.48        -4.0797255      34.760108      220.78309      0.0012489332 
  31600000   324.50804     -10.519518      38.452983      220.42553      0.0023768179 
  31610000   289.42523     -4.9924412      32.926237      199.6154       0.0023916577 
  31620000   303.40018     -1.9221566      35.057488      213.10661      0.0024496377 
  31630000   313.76013     -4.5659918      39.08397       220.63459      0.0026725041 
  31640000   277.99736     -1.512125       36.368175      199.75885      0.0011858508 
  31650000   298.85376     -4.3540319      38.567353      211.48776      0.0017512213 
  31660000   289.97023     -5.5211641      34.480515      200.96424      0.0021385927 
  31670000   277.86288      0.28493223     33.656746      198.76472      0.00036593697
  31680000   291.69385     -1.4313711      37.7987        209.39464      0.0017812877 
  31690000   278.83301     -0.6734838      40.74658       205.47159      0.0021849716 
  31700000   275.03118     -7.7225237      34.215323      189.63612      0.00091221807
  31710000   283.53333     -10.867453      35.217278      192.53647      0.00022700435
  31720000   292.03551     -10.466776      40.593808      203.35701      0.0018175383 
  31730000   269.89057     -7.0619166      29.903421      182.93552      0.0014481868 
  31740000   315.27209     -10.347669      40.896576      217.56238      0.0021298924 
  31750000   303.76723     -2.7830117      41.116244      218.52225      0.0011088595 
  31760000   290.02803     -0.23436358     35.215864      207.02068      0.0015599958 
  31770000   323.84543     -0.97889641     26.595796      217.71592      0.0043725055 
  31780000   316.08968     -1.1890341      29.605812      215.91523      0.0035088343 
  31790000   290.57378      1.6196174      32.134945      206.11746      0.0033759626 
  31800000   300.74063      0.55461011     28.956925      207.90523      0.0014807581 
  31810000   277.17274      0.67328416     39.83662       204.92356      0.00019928549
  31820000   277.33917      1.8705057      32.427173      198.81006      0.0017137326 
  31830000   288.91144      6.909524       32.050254      210.33661      0.0014484798 
  31840000   282.63539      8.4403056      36.164722      212.25903      0.00064173697
  31850000   303.00468      2.6819473      32.340093      214.75872      0.0027867701 
  31860000   278.77387      0.22425957     43.876612      209.46429     -0.0010922044 
  31870000   289.35305      1.8828139      41.546887      215.06849     -0.00059340489
  31880000   287.48378     -7.4360599      41.220017      204.31393     -6.1435973e-05
  31890000   312.72091      3.2913787      39.755758      228.5473       0.0014904417 
  31900000   306.76443     -1.2956047      32.597925      213.26921      0.0022393391 
  31910000   301.4247      -5.6744246      46.712588      219.83763      0.0017315942 
  31920000   303.3521      -1.3268587      37.111521      215.72742      0.0019887444 
  31930000   325.95136     -1.0494598      34.153105      226.45187      0.0046675775 
  31940000   319.6289      -6.2051832      34.627797      218.02047      0.0025563005 
  31950000   313.35367     -6.3553911      35.958835      215.47895      0.0021992505 
  31960000   293.49501     -12.733722      35.962231      197.32423      0.0018044123 
  31970000   268.82877     -10.57209       35.768919      184.661        0.00088856544
  31980000   294.95341     -13.838303      32.508082      193.6306       0.0026143271 
  31990000   278.63464     -17.416787      39.319684      187.18373      0.00064184462
  32000000   307.58768     -10.485644      37.253293      209.22288      0.0031059395 
  32010000   318.74895     -5.1714478      40.100121      224.00456      0.003234202  
  32020000   284.07835     -14.155993      35.397596      189.75154      0.0011964651 
  32030000   282.59033     -12.252778      30.626928      186.00142      0.0020011849 
  32040000   310.29696     -12.125581      37.230895      209.16764      0.0008907708 
  32050000   310.7962      -11.534379      39.023803      211.84789      0.0016840409 
  32060000   282.64269     -16.760914      37.474418      188.37184      0.00011204817
  32070000   287.78002     -17.312601      37.049144      190.44224      0.0012387339 
  32080000   276.94749     -19.519734      41.240354      186.00067      0.00097382706
  32090000   306.37064     -17.017533      34.08178       198.79755      0.0018574876 
  32100000   299.55126     -16.501617      44.628349      205.81491      0.0016899643 
  32110000   298.64131     -12.292638      40.458389      205.31416      0.00078670184
  32120000   285.84022     -13.590399      47.580383      203.54503     -0.00055660705
  32130000   292.35124     -6.953307       38.278976      204.74293      0.0018251268 
  32140000   314.00117     -10.625614      35.422135      211.05611      0.002375734  
  32150000   290.87116     -12.652888      38.761627      198.64805      0.0014104042 
  32160000   294.10183     -11.667577      48.813256      211.60135      0.00033246441
  32170000   301.97259     -10.638344      36.114481      204.6006       0.0015671186 
  32180000   291.60144     -7.9851203      44.08411       209.07148      0.00017843787
  32190000   277.30828     -5.8675235      41.061755      199.68829      0.00011176536
  32200000   301.86874     -4.5059723      39.605303      214.16219      0.0007500757 
  32210000   305.69808     -7.659117       42.153478      215.82872      0.00127669   
  32220000   309.89819     -7.1990564      29.670722      206.29745      0.0028574275 
  32230000   309.96678     -4.7975718      31.783749      210.85264      0.0035714874 
  32240000   329.5092       1.063877       36.496972      233.01951      0.0031226718 
  32250000   301.79879     -0.85130398     41.897544      220.06761      0.00083271956
  32260000   286.41565     -5.3029388      30.014078      194.60752      0.0030205809 
  32270000   299.48217     -7.7666066      39.764845      209.64543      0.001857872  
  32280000   300.10002     -1.6250455      32.663783      209.05243      0.0034932147 
  32290000   342.8431       3.3588706      31.18045       237.9074       0.0036896826 
  32300000   288.65156      5.512577       33.604011      210.33927      0.0012596456 
  32310000   314.3839       5.2395577      44.2571        235.98327      0.0017042324 
  32320000   287.79862     -4.780454       32.805707      198.74198      9.2718063e-05
  32330000   313.91125     -0.35075055     42.431848      228.28735      0.002791163  
  32340000   292.26817     -1.1057868      39.916434      212.17863      0.0012832704 
  32350000   298.80466      0.90825382     35.285409      213.43897      0.00062521914
  32360000   282.66498      0.33225069     29.002932      197.00674      0.00284179   
  32370000   306.03625     -2.4731124      44.028969      223.09081      0.00072645879
  32380000   282.42494      0.4952334      33.361475      201.38588      0.0018771696 
  32390000   333.39751      9.8873445      35.011753      242.66423      0.0029502355 
  32400000   302.30612     -0.50113969     37.042698      215.86387      0.0018200181 
  32410000   316.06308      5.6088548      35.700769      228.7923       0.0019913211 
  32420000   285.0129       1.5600646      42.331956      212.95631      0.0016334378 
  32430000   306.73744      0.77083971     35.167888      217.88961      0.0021587081 
  32440000   276.31804      1.529697       41.624367      207.06073      0.00064114641
  32450000   321.65788     -5.833798       33.705432      218.67304      0.0015631006 
  32460000   286.21382     -0.29622952     33.042415      202.52284      0.0013507552 
  32470000   304.48484     -0.96595519     36.499177      216.14791      0.00081447913
  32480000   315.13335      1.9232941      53.009224      241.86369      0.00078466926
  32490000   310.48313     -0.91520638     35.503771      218.76132      0.0028579368 
  32500000   289.02017     -3.7109489      42.062689      209.79307      0.00044334224
  32510000   327.62912     -7.4655355      34.724535      221.60243      0.002431163  
  32520000   267.22968     -9.4592494      40.526894      189.58327      0.00016217275
  32530000   299.22405     -14.478645      40.861111      203.87655      0.0010554672 
  32540000   302.0409      -21.180897      32.175966      190.16005      0.002123043  
  32550000   302.55776     -15.682224      31.091733      194.88108      0.0037178925 
  32560000   299.01402     -18.130549      42.914576      202.15352      0.0010349811 
  32570000   277.39693     -12.986636      40.499529      192.05953      0.0018455739 
  32580000   299.49505     -18.372259      35.066894      194.34947      0.0018055606 
  32590000   313.67785     -22.095891      37.843768      201.81568      0.0010848328 
  32600000   302.86234     -22.256366      32.746573      190.14245      0.0018020153 
  32610000   317.02942     -20.320632      32.422198      200.15746      0.0016912979 
  32620000   311.61277     -20.247865      37.151902      201.74687      0.0030974798 
  32630000   299.39168     -15.928585      31.350628      193.01556      0.0027186835 
  32640000   317.89186     -15.885212      42.580473      215.26274      0.0012476543 
  32650000   294.729       -16.366823      40.508323      198.9692       0.0022207061 
  32660000   304.18637     -12.576664      34.321443      202.18241      0.0030047187 
  32670000   306.63642     -20.081478      38.943378      200.75286      0.001149235  
  32680000   291.39652     -17.665666      38.690168      193.87544     -0.00049180146
  32690000   293.6372      -21.762039      29.196462      181.61449      0.0024357545 
  32700000   304.32539     -20.019319      37.318291      197.81907      0.0024366622 
  32710000   310.42249     -15.06342       38.24671       207.32007      0.0022329155 
  32720000   299.66221     -16.807458      39.341223      200.28775      0.001893425  
  32730000   295.43872     -16.603799      41.518203      200.1631      -0.00086597197
  32740000   298.7161      -12.735383      36.904841      201.36223      0.00081915685
  32750000   304.60293     -12.347613      35.18312       203.52024      0.00089712845
  32760000   294.94166     -11.373586      43.858412      207.43868     -0.0018251661 
  32770000   317.39528     -12.191962      52.091151      228.1721      -0.0010041472 
  32780000   327.19329     -13.711668      34.227373      214.60061      0.0026093308 
  32790000   307.29541     -23.945468      37.572874      195.90927      0.0024346837 
  32800000   303.68582     -21.341794      42.954585      201.75351     -0.0010608402 
  32810000   341.78295     -26.393646      35.880444      212.22602      0.0024431698 
  32820000   276.12927     -32.073846      41.878362      173.59921     -0.0010086602 
  32830000   289.92993     -27.445288      37.839938      182.37563      0.0013827809 
  32840000   324.68482     -14.290436      37.531574      215.83807      0.0021811552 
  32850000   319.55474     -21.860054      31.931647      199.62546      0.0032570449 
  32860000   280.5225      -24.565204      35.641295      177.47676      0.00027411818
  32870000   294.39621     -12.208648      44.457315      206.87897      9.0743353e-05
  32880000   307.58643     -9.3824324      36.176273      209.24833      0.0013210159 
  32890000   325.59891     -14.790943      35.839866      214.18808      0.0021763863 
  32900000   269.07275     -13.262614      51.951104      198.29739     -0.0015428666 
  32910000   288.66509     -15.711179      33.301456      188.82098      0.0016046145 
  32920000   294.46356     -8.2158662      35.107489      201.56187      0.0018843069 
  32930000   284.576       -14.064683      35.593833      190.33428      0.0012653328 
  32940000   311.78921     -15.989211      42.527506      211.48579      0.0012693767 
  32950000   256.15069     -17.282532      47.808125      182.46936     -0.0014434939 
  32960000   309.92763     -6.4564308      51.343622      228.73043      0.00012292621
  32970000   315.69434     -5.7227817      36.760393      218.30156      0.0020491067 
  32980000   313.85091     -5.7385386      40.215745      220.64766      0.00016980734
  32990000   275.84439     -6.6671732      34.932293      191.89083      0.00080863109
  33000000   314.66482     -11.80729       52.544513      227.39048     -0.0011352018 
  33010000   304.19651     -7.9637706      33.365921      205.8458       0.0015872656 
  33020000   300.98134     -15.104524      38.036871      201.46882      0.00265919   
  33030000   312.54147     -11.235843      45.150992      219.30887     -0.00011051782
  33040000   332.05877     -11.360429      37.493708      223.1043       0.001854054  
  33050000   326.84014     -18.245218      34.746843      210.37705      0.0019144331 
  33060000   295.45972     -16.242985      43.161316      202.17948      0.0012388668 
  33070000   304.26815     -14.57955       48.029967      213.93656     -0.00076459124
  33080000   299.52597     -8.5519219      35.829392      204.95064      0.0012825638 
  33090000   294.58453     -10.604331      34.453384      198.59106      0.0026521369 
  33100000   306.51469     -7.190875       43.280366      217.90824      0.00096918713
  33110000   288.5317      -6.0732121      45.732825      210.81119     -0.0004906345 
  33120000   296.86692     -1.545893       45.448513      219.99849      0.00061676761
  33130000   314.24209     -6.4004767      38.178992      218.18101      0.0011683149 
  33140000   293.85306     -7.5415536      51.052784      217.81934     -0.0011414681 
  33150000   293.7682      -1.9102143      45.812239      218.1598       0.00050688161
  33160000   284.24142     -4.0701146      40.473803      205.01035      0.00095114568
  33170000   332.81438     -3.8166455      37.458678      231.06126      0.00096063177
  33180000   293.1625      -2.490299       35.705782      207.11397      0.00067642667
  33190000   327.51351     -4.1868587      39.266593      229.35459      0.0019163047 
  33200000   279.57819     -3.223204       30.800941      193.41827      0.0019320304 
  33210000   290.16529     -5.0798921      38.58724       205.62794      0.00033352643
  33220000   320.17341     -5.8456888      36.096751      220.17191      0.0037045673 
  33230000   309.61942     -3.0844353      39.479348      220.05533     -0.00022892484
  33240000   302.80883     -3.042715       34.428093      211.00588      0.0019026498 
  33250000   324.52828      1.9948204      37.986194      232.48509      0.0028159516 
  33260000   282.36424     -2.831419       35.170596      199.83233      0.0014852861 
  33270000   290.70748     -0.12953303     37.415885      209.72856      0.000260627  
  33280000   305.56541     -6.2754927      39.851805      214.83197     -0.00011439088
  33290000   328.72764     -1.3696751      45.52258       239.14796      0.00031175218
  33300000   293.87287      2.1379365      44.751536      221.20934      0.0013727145 
  33310000   318.33811     -7.1442982      43.89445       225.58234      0.0013367423 
  33320000   299.18115     -6.1795718      37.255356      208.54442      0.0019223063 
  33330000   315.57371     -6.14457        36.838414      217.88623      0.0014411339 
  33340000   314.52937     -7.9827639      38.899759      217.4899       0.0041709794 
  33350000   280.74351     -10.120574      39.103889      195.51508      0.0014329534 
  33360000   307.14856     -12.156752      41.521031      211.55903      0.0014387223 
  33370000   281.16322     -10.754276      27.223048      183.24951      0.0017060858 
  33380000   325.57402     -12.411586      43.335483      224.04829      0.0013058836 
  33390000   290.10449     -17.984495      44.254966      198.355       -0.00030754226
  33400000   337.12178     -11.200087      40.90981       229.68402      0.0016555724 
  33410000   305.45437     -11.271256      38.676367      208.5949       0.0017650388 
  33420000   293.91693     -10.401191      37.617784      201.56259     -0.00037019982
  33430000   345.06499     -17.449486      33.322241      220.55882      0.0026046334 
  33440000   309.78786     -15.016444      37.796007      206.5399       0.0018750738 
  33450000   278.93857     -8.9624924      38.306218      194.80484      0.00031153792
  33460000   301.07021     -11.537865      32.053315      199.10464      0.0015897425 
  33470000   283.83183     -9.6329909      40.024386      198.7551       0.0015776483 
  33480000   305.41998     -12.294228      33.915691      202.79085      0.0024958805 
  33490000   310.41767     -17.238344      47.636433      214.53202      0.00084960472
  33500000   310.60226     -11.315283      51.214629      224.14277      0.00036411194
  33510000   307.96529     -14.009705      40.726821      209.39634     -0.00019556054
  33520000   318.68648     -8.558907       38.042756      218.52268      0.0014891454 
  33530000   281.82162     -1.1393602      43.178292      209.21022      0.0010202565 
  33540000   305.88536     -13.833613      36.930932      204.54276      0.0020501217 
  33550000   306.68332     -17.265668      34.270391      198.9235       0.0015144297 
  33560000   315.1202      -21.566158      43.775532      209.13275      0.0009508163 
  33570000   311.35406     -19.421411      37.955891      203.22386      0.0014735451 
  33580000   310.52267     -20.850544      30.649995      193.99566      0.0028407481 
  33590000   292.11735     -14.589809      37.471906      196.16062      0.0022731179 
  33600000   350.54725     -17.322364      36.934352      227.55003      0.0016601317 
  33610000   302.41669     -6.420239       36.224074      209.19173      0.0024188929 
  33620000   289.49072     -4.7389142      48.191221      215.17276     -0.0015554826 
  33630000   298.96231     -7.1873878      40.022551      210.17398      0.00050839304
  33640000   311.6425      -2.2904939      43.304479      225.87446      0.00028625428
  33650000   313.05485      1.616748       52.566778      239.88178     -5.6363078e-05
  33660000   315.15263     -3.6543471      33.196682      216.48495      0.0029087574 
  33670000   304.04406     -0.82831015     38.551601      218.07651      0.0013562811 
  33680000   277.27219     -5.1487229      43.377809      202.70174     -0.0010906807 
  33690000   310.79862     -11.785751      31.852043      204.42619      0.0033113479 
  33700000   297.03491     -11.594378      37.068         201.66915      0.0023047802 
  33710000   287.25403     -9.5103338      39.382824      200.26618      0.001008816  
  33720000   290.65221     -14.991294      44.602201      202.02034     -0.00052906946
  33730000   293.28769     -12.935132      41.741136      202.77875      0.0015430246 
  33740000   294.7872      -17.684986      43.053364      200.2306       0.00075132936
  33750000   278.10982     -18.925544      37.166865      183.21084      0.00050659258
  33760000   300.21676     -11.106243      42.504876      209.48157      0.00095607143
  33770000   307.52842     -9.0305644      43.612137      217.00165      0.00035949108
  33780000   311.21374     -6.9064188      38.789858      216.48958      0.00062033769
  33790000   286.10411     -7.2139832      40.073769      202.57137      0.00088746243
  33800000   294.75928     -5.4730774      34.637058      204.00964      0.0011982117 
  33810000   321.83801     -1.7826562      40.660074      229.78567      0.00092439228
  33820000   316.48621     -1.297077       40.113943      226.55054      0.00053769528
  33830000   292.46349     -1.2742922      34.710577      206.92013      0.0015055119 
  33840000   294.21784      2.5973266      37.849764      214.97158      0.0004448934 
  33850000   289.56469      2.0924544      41.766427      215.62321      0.00010269128
  33860000   289.70459     -5.4402181      35.391182      201.79828      0.0028167836 
  33870000   284.37101     -2.4837699      36.678038      202.87781      0.0018536305 
  33880000   322.05411     -8.2359476      33.962434      216.76293      0.0021966096 
  33890000   296.09237     -6.8783065      30.89035       199.64847      0.0026685811 
  33900000   271.77534     -9.126085       33.623391      185.70933      0.0021046011 
  33910000   281.11419     -11.545867      36.080849      191.28663      0.00096404391
  33920000   334.47166     -10.707087      33.951192      221.6464       0.0030899938 
  33930000   276.81169     -5.9164181      43.041792      201.32487      0.0017379985 
  33940000   298.12722     -9.1876155      32.628684      200.28453      0.0027355638 
  33950000   334.5739      -8.956583       34.67999       224.18635      0.0024188557 
  33960000   277.88201     -11.513615      44.812094      198.13286     -0.00089050353
  33970000   267.09087     -10.737947      43.588039      191.28338     -0.0013177284 
  33980000   286.01504     -12.205793      36.434492      193.88745      0.00071429106
  33990000   337.2673      -2.5757674      43.597102      241.08195      0.0023608865 
  34000000   340.13529     -3.4750524      45.755216      244.04202      0.0013813909 
  34010000   293.13313     -6.2712964      46.416705      214.02647     -0.001177829  
  34020000   319.53071     -7.008672       47.227896      229.75884      0.0008811195 
  34030000   293.15947     -5.1794584      39.067702      207.78493      0.0018149887 
  34040000   271.27646     -12.612233      39.897987      188.20185      0.001114729  
  34050000   301.47211     -14.539336      30.860588      195.14884      0.0021849046 
  34060000   314.17387     -14.853739      43.199479      214.70778      0.0010952876 
  34070000   288.86781     -13.151385      43.331867      201.53144      0.00019721972
  34080000   272.04006     -9.964289       43.152628      194.55739     -0.001114493  
  34090000   312.41983     -13.784035      35.879987      207.41752      0.0018789518 
  34100000   290.79711     -15.012655      50.767239      208.24996     -0.001097849  
  34110000   283.10743     -9.186794       43.204299      201.95151     -0.00027917158
  34120000   317.18879     -11.879137      43.387266      219.65856      0.0014404988 
  34130000   315.00267     -12.812584      40.881782      214.92286      0.0025238659 
  34140000   297.69801     -13.454663      35.943863      199.07807      0.00119379   
  34150000   299.78246     -8.3019151      44.308543      213.83195      0.0012269228 
  34160000   287.26315     -10.439449      44.210985      204.17064     -0.00039290724
  34170000   304.15816     -10.935758      37.92314       207.40829     -0.00053871215
  34180000   311.92983     -11.185268      45.57261       219.41825      0.00076833259
  34190000   316.45922     -14.15747       49.260187      222.82038     -0.00034360148
  34200000   291.18073     -15.957944      36.9589        193.72389      0.0008516413 
  34210000   307.78686     -15.985374      32.438311      199.02632      0.0024767638 
  34220000   285.75146     -9.278433       46.066259      206.29022     -3.0870268e-05
  34230000   290.35277     -6.5461356      45.665528      211.3512      -0.00063357367
  34240000   290.75813     -6.4365928      40.999673      207.03534     -0.00020825383
  34250000   325.70481     -8.5504711      47.226756      231.87825     -0.00021526901
  34260000   312.12064     -7.0676038      43.055527      221.13202     -0.00063174905
  34270000   261.41474     -1.9142357      46.77301       199.92509     -0.00090868302
  34280000   282.57471     -8.0229791      43.713486      203.30851     -0.00041134268
  34290000   328.78816     -2.5519005      35.194354      227.67341      0.0024832135 
  34300000   291.80228     -4.502184       47.327144      215.91659      4.3923313e-05
  34310000   291.95665     -1.8110183      44.004664      215.37684     -5.3979177e-05
  34320000   303.55268     -8.0742585      46.325375      218.31286      0.00032256713
  34330000   286.03163     -8.868421       37.121585      197.92175      0.0016837074 
  34340000   309.11779     -4.5303601      46.619552      225.45205     -0.00066155806
  34350000   330.80759     -7.5155652      41.60713       230.32041      0.0014299453 
  34360000   300.28602     -9.4033977      35.221276      203.9419       0.0017663877 
  34370000   292.43137     -7.6559196      50.694257      216.50313     -0.0017973621 
  34380000   296.33124     -6.8413409      38.877275      207.81406      0.00039199507
  34390000   280.46495     -13.139014      36.247005      189.47453      0.0005537993 
  34400000   286.07426     -8.5127576      57.911535      219.09265     -0.0029838528 
  34410000   292.62365     -13.882265      33.48815       193.18473     -9.1805133e-05
  34420000   274.19994     -11.480873      52.749135      203.91851     -0.00058246124
  34430000   306.2151      -14.585231      42.59428       209.65009      2.0344216e-05
  34440000   301.92204     -9.1588173      48.978408      218.91407     -0.0014263723 
  34450000   309.55286     -11.661027      43.044545      215.00446      0.00077628268
  34460000   298.96658     -12.616427      39.710166      204.4351      -0.00010896048
  34470000   299.61933     -13.274857      49.6764        214.1301      -0.002147182  
  34480000   266.85972     -10.436301      41.15261       189.01248      0.00030223382
  34490000   326.20194     -15.199275      45.410681      223.70827      0.00039692423
  34500000   289.46208     -13.568064      35.180341      193.31574      0.00043046028
  34510000   305.36104     -13.263218      38.419025      206.29024      0.0011991227 
  34520000   320.84447     -14.265856      39.183432      215.23649      0.002253767  
  34530000   303.98297     -11.510508      42.591843      211.39832      0.00099562369
  34540000   290.65607     -18.30168       46.590823      200.70086     -0.00057500882
  34550000   309.40345     -19.925474      43.308659      206.91549     -0.00017595629
  34560000   309.10047     -19.320302      40.347941      204.38023      0.00041290208
  34570000   312.39763     -23.485033      44.232323      206.05569     -0.0009544867 
  34580000   303.26356     -16.156724      35.955161      199.68868      0.00098729394
  34590000   301.9824      -8.6586217      34.576277      205.04794      0.0030481348 
  34600000   300.11346     -10.723472      39.876247      207.17444      0.00053373569
  34610000   339.41563     -13.120924      44.668768      232.88281      0.0011240157 
  34620000   318.56217     -12.537912      43.900131      220.32731     -0.00016681459
  34630000   304.29676     -13.490917      43.992147      211.00435      0.00022133824
  34640000   292.84687     -11.565191      53.042102      215.18817     -0.00026004042
  34650000   352.73463     -7.971143       30.543042      231.80745      0.0029788662 
  34660000   302.54926     -2.2658191      35.709661      212.91038      0.0020008999 
  34670000   291.74139     -3.3235249      33.840148      203.57213      0.0010906784 
  34680000   285.85652     -4.7736824      38.897845      203.68888      0.0019622632 
  34690000   305.30269     -4.0175918      37.724312      214.80654      0.0010124134 
  34700000   298.92388     -5.4668651      36.54081       208.38997      0.001998073  
  34710000   294.15437     -10.043848      39.936864      204.37986      0.00060060057
  34720000   292.01959     -14.471529      48.926007      207.67501     -0.0017495853 
  34730000   289.18892     -15.270479      35.443611      191.71456      0.00033629954
  34740000   322.62006     -13.235623      40.330313      218.46684      0.00038755154
  34750000   295.58615     -9.212078       35.393929      201.518        0.00080368054
  34760000   299.74397     -9.8714681      40.830044      208.76106      0.00066806582
  34770000   307.6279      -13.555692      39.720149      208.64355      0.0019160468 
  34780000   294.01283     -9.4164589      36.470517      201.45694      0.00058619298
  34790000   305.47811     -12.494866      42.088897      210.7979       0.00028530178
  34800000   271.00102     -11.738464      43.998783      193.01303     -0.0013010263 
  34810000   308.9393      -13.978336      48.560986      217.83963     -0.0011477656 
  34820000   334.69699     -3.6631466      36.87321       231.74603      0.0019563407 
  34830000   290.38548     -0.84771815     41.486107      212.88959      0.00057725019
  34840000   299.38465      0.57248316     50.61547       228.7773       0.00035293623
  34850000   300.78328      4.4672251      29.676394      212.56261      0.0026952967 
  34860000   296.50409     -1.1441757      44.213213      218.94969     -5.033223e-05 
  34870000   309.88331     -0.41727807     30.688103      214.08778      0.0020820476 
  34880000   299.30835      2.9070293      35.882997      216.33412      0.00049866441
  34890000   291.30115      6.3579139      43.619214      222.77149      0.0014324774 
  34900000   327.03403      6.5203901      32.530689      233.04152      0.003952909  
  34910000   275.39503      4.1887483      38.377274      205.92518      6.4447358e-05
  34920000   269.73502     -0.19400407     29.641624      189.44936      0.00068208663
  34930000   307.50521     -1.1373845      34.512061      215.78098      0.0026555119 
  34940000   278.57777     -6.4885394      32.152514      190.91107      0.0018152521 
  34950000   320.20047     -6.640411       38.721963      222.01845      0.0035077007 
  34960000   288.6878      -9.1934553      35.025931      197.07665      0.001293872  
  34970000   275.78453     -2.9901856      35.527483      196.1275       0.0012475795 
  34980000   297.78832     -4.5378507      34.594313      206.6989       0.002212129  
  34990000   314.69008     -2.6079114      38.224701      222.28503      0.0015158531 
  35000000   319.43062     -2.9713287      28.55948       215.06839      0.0030406849 
  35010000   299.97729     -5.9649348      41.59495       213.5709       6.7917517e-05
  35020000   319.79575     -7.7105084      40.298746      222.28506      0.00050454839
  35030000   276.23974     -4.943276       37.059521      195.97647      0.00031314925
  35040000   289.60968     -5.5495283      34.037958      200.27945      0.0019410187 
  35050000   303.08065      2.8348726      29.787382      212.404        0.0030812019 
  35060000   294.32505      0.11638668     36.646957      211.35143      0.00091971764
  35070000   320.88185     -0.012998686    38.472595      228.80068      0.0027306512 
  35080000   308.64821      0.69066166     38.836738      222.61172      0.0020521929 
  35090000   297.86194     -10.770233      38.780417      204.69629      0.0014962115 
  35100000   286.35959     -10.646106      24.017051      183.23407      0.0034438054 
  35110000   303.67095     -8.676331       35.634212      207.08978      0.0023671901 
  35120000   297.83844     -5.4769212      26.097611      197.29285      0.0036304941 
  35130000   292.48616     -3.3035535      31.063956      201.2577       0.0021120136 
  35140000   319.88822     -5.2098411      30.635139      215.17698      0.0030718568 
  35150000   308.25538     -9.73282        31.528856      204.64733      0.0031333855 
  35160000   279.17464     -12.123939      38.41643       191.89364      0.0016651151 
  35170000   336.99896     -9.8100141      55.491829      245.58326     -0.0001887547 
  35180000   298.0794      -4.1955021      39.67371       212.29331      0.00026471848
  35190000   282.04337     -3.1441214      32.87891       197.03761      0.0013099125 
  35200000   300.54764     -3.8011176      39.448991      213.92708      0.0018104658 
  35210000   300.32577     -6.0136904      41.806402      213.94031      0.0013668798 
  35220000   292.63972     -7.3541313      39.258893      205.49314      0.0010561629 
  35230000   280.42954     -8.4563582      40.472485      198.36166      0.00060823581
  35240000   297.60972     -12.75567       40.831353      204.61217      0.0020018541 
  35250000   302.76608     -8.2406872      41.959954      213.31441      0.0014412279 
  35260000   278.63256     -7.630465       36.243852      193.89298      0.00054235862
  35270000   317.45384     -8.964479       28.560168      207.90334      0.003842699  
  35280000   342.95259     -7.9222592      34.694775      230.20554      0.004051935  
  35290000   321.35057     -8.6596397      44.162129      226.12161      0.00045752792
  35300000   315.8233      -9.277005       30.405398      208.46883      0.0034828955 
  35310000   294.17416     -7.931455       35.354294      201.92142      0.0009543477 
  35320000   285.84437     -11.000317      38.334812      196.892        0.0021803403 
  35330000   289.99766     -13.122157      30.100596      188.9996       0.0023454928 
  35340000   279.44977     -9.8986503      39.90269       195.76839      0.00018446697
  35350000   312.40293     -4.1303042      34.529798      215.71104      0.0015189579 
  35360000   299.7328      -10.333177      35.583847      203.04653      0.0022307362 
  35370000   305.20204     -18.470715      31.868083      194.43748      0.0028846949 
  35380000   307.55569     -13.658719      37.669438      206.44697      0.00137426   
  35390000   323.80271     -4.2208518      33.125764      220.97859      0.0040582636 
  35400000   284.18204     -12.016246      38.887135      195.44233      0.00064887355
  35410000   318.53136     -14.740569      32.164941      206.37119      0.0030287513 
  35420000   275.06964     -16.058143      28.875002      175.983        0.002147818  
  35430000   298.61417     -13.235281      35.904211      199.80124      0.0010792426 
  35440000   302.71878     -9.572607       35.124298      205.11878      0.0026681002 
  35450000   290.90032     -11.990403      34.550183      195.11638      0.0018563116 
  35460000   291.08115     -14.158138      36.040285      194.54601      0.0027229917 
  35470000   326.89711     -5.8188263      33.055893      221.14629      0.0030594332 
  35480000   285.43537     -7.049025       41.157627      203.4235       0.00027775151
  35490000   287.29455     -20.279061      36.180572      186.31923      0.0017227682 
  35500000   284.37294     -18.89519       31.875107      181.6646       0.0026408452 
  35510000   305.08658     -14.004117      42.913002      209.88051      0.00034587359
  35520000   332.32191     -8.4413463      36.412311      225.09808      0.0029981296 
  35530000   341.6121      -13.140029      30.253505      219.75135      0.0051070734 
  35540000   329.93869     -7.2395884      35.089021      223.56286      0.0026655852 
  35550000   287.94554     -4.1319601      43.75231       210.42423      0.0015137741 
  35560000   307.28689     -4.6789489      37.259952      214.85781      0.0020492784 
  35570000   309.34959     -11.365291      36.123043      208.25811      0.002374851  
  35580000   300.8895      -7.4546068      30.318481      201.34587      0.0026571765 
  35590000   301.2987      -7.6758414      43.374604      214.42349      7.4230235e-05
  35600000   264.69736     -3.9929147      35.075746      188.09633      0.00065573623
  35610000   299.50715     -2.3448853      35.024121      210.34124      0.0034236491 
  35620000   328.7328      -3.7063484      37.900862      229.19263      0.0025817372 
  35630000   306.42197      3.235401       36.987838      221.98699      0.001546309  
  35640000   280.87135      2.8714181      34.15651       203.63553      0.0027269947 
  35650000   302.98833     -3.8019527      38.448097      214.37313      0.0020629602 
  35660000   274.23731     -10.259225      30.371677      182.78487      0.0030042018 
  35670000   335.91371     -9.7150418      40.79272       230.33538      0.0029853049 
  35680000   287.81373     -9.1046791      38.492285      200.1133       0.0012107647 
  35690000   295.06461     -10.126552      34.322682      199.22291      0.0024357699 
  35700000   306.19204     -4.6001457      30.479622      207.50684      0.0029394412 
  35710000   313.63776     -5.3350935      38.544515      219.25344      0.00043606013
  35720000   309.37269     -2.2164652      34.042238      215.33984      0.0015518124 
  35730000   321.15207     -4.1643104      32.588718      218.92578      0.0036278251 
  35740000   290.48035     -8.6566784      32.754229      196.40503      0.0019662689 
  35750000   291.07577     -12.629692      36.019246      196.05023      0.0022369011 
  35760000   312.85719     -9.7315161      34.247329      210.09681      0.0024582271 
  35770000   295.17627     -3.8244465      44.966655      216.23522     -0.00013311358
  35780000   288.05926     -8.721012       34.080427      196.23076      0.0020486344 
  35790000   348.39513     -2.024219       58.844751      263.48197     -0.00012669321
  35800000   299.8206      -3.7740317      40.060984      214.13489      0.00057304082
  35810000   342.30879      0.034555958    43.469792      246.55548      0.0014094301 
  35820000   273.30791      2.4222098      44.617095      209.16042      0.00010152987
  35830000   304.91546     -1.6320363      40.574489      219.81257      0.00057335025
  35840000   284.03869     -0.96755841     40.666367      208.18522      0.00066871893
  35850000   312.53785     -4.5421565      45.592877      226.4423       0.0022048465 
  35860000   300.51728     -8.4194836      42.937913      212.77963      0.001561673  
  35870000   286.37109     -9.9300105      35.828505      195.76844      0.0016712866 
  35880000   286.84432     -9.9773045      40.558715      200.73207      0.00081338281
  35890000   297.15987     -11.693762      29.215811      193.7917       0.0037463752 
  35900000   311.62421     -14.593419      31.24072       201.49692      0.0027083646 
  35910000   320.83245     -1.7656697      37.854308      226.40042      0.0026764465 
  35920000   253.38119     -8.7989927      57.896439      199.3984      -0.002713172  
  35930000   310.73305     -10.569395      37.305851      211.05746      0.0012728239 
  35940000   332.63588     -11.005047      37.060985      223.36929      0.0029247666 
  35950000   311.9556      -11.81776       43.036166      216.26461      0.0016647016 
  35960000   291.43906     -17.73197       38.079682      193.22388      0.001767659  
  35970000   304.98024     -16.709413      33.531174      197.7303       0.0025205931 
  35980000   297.52771     -16.424471      43.179989      203.24336      0.00060279177
  35990000   300.32489     -10.460245      36.701688      204.38852      0.0021919067 
  36000000   288.45584     -11.8025        39.936161      199.24024      0.00091063304
  36010000   291.91713     -9.752448       33.649209      197.05652      0.0015736777 
  36020000   292.9356      -6.0209614      44.450516      212.19344     -0.00042615779
  36030000   306.70616     -12.385226      31.097861      200.64496      0.0033189229 
  36040000   313.57859     -16.375462      36.730037      206.3635       0.0024753752 
  36050000   296.25189     -16.956215      42.662372      201.43721      0.0011650463 
  36060000   308.77243     -19.141775      37.094405      201.11063      0.001497438  
  36070000   316.94302     -14.492125      45.831418      219.34393      0.00084489385
  36080000   284.11072     -2.7708251      35.750682      201.50899      0.002086015  
  36090000   338.8348      -9.5793309      45.621745      237.03285      0.00055703607
  36100000   312.65419     -5.5315793      40.656476      220.58548      0.0019451468 
  36110000   316.50328     -0.88742401     51.151835      238.00821      0.00065480474
  36120000   338.87159     -11.146888      39.737729      229.60309      0.0023108    
  36130000   285.426       -4.7835446      39.643819      204.16961     -0.00037759514
  36140000   326.86012     -0.97642082     42.798473      235.70933      0.0024024877 
  36150000   306.33477     -6.3160454      37.599976      212.99596      0.001992476  
  36160000   278.19935     -6.106106       37.652182      196.5687       0.00097448632
  36170000   295.4654      -6.4743869      39.293723      208.08386      0.0013367834 
  36180000   280.31694     -7.0871735      50.606464      209.79803     -0.0014286449 
  36190000   312.91675     -15.513306      43.834799      213.93783      0.0015697239 
  36200000   283.14464     -9.7963819      33.541548      191.70124      0.0031772468 
  36210000   319.44434     -8.6756868      46.283717      227.09641     -0.00030781351
  36220000   288.05518     -9.2730606      38.719608      200.31547      0.00076751534
  36230000   288.53614     -17.406609      40.118825      193.86643      0.00053635755
  36240000   335.27716     -23.836071      34.735433      209.77947      0.0024045759 
  36250000   261.88637     -24.940711      39.626192      170.03155      4.977647e-05 
  36260000   292.58377     -25.845391      37.98335       185.69315      0.0004343894 
  36270000   318.97644     -20.002686      40.116182      209.32433      0.002456985  
  36280000   298.1109      -20.864606      40.346314      196.31549      0.00073328483
  36290000   291.50986     -25.846725      41.328658      188.4001       0.00096070747
  36300000   318.10206     -23.675998      38.26176       203.27792      0.0013758899 
  36310000   272.87377     -20.867477      37.688676      178.68479     -2.780898e-06 
  36320000   263.52043     -20.838791      44.357357      179.83393      5.685869e-05 
  36330000   313.20286     -17.560664      36.213781      204.43916      0.001817292  
  36340000   332.88271     -18.126634      40.208836      219.54196      0.0014819931 
  36350000   327.3201      -26.569688      34.560141      202.15058      0.0013730846 
  36360000   281.67337     -23.041877      47.918872      191.96034      0.0008059158 
  36370000   313.41576     -19.028748      34.198857      201.08245      0.0019229429 
  36380000   325.13567     -17.7044        38.937279      214.09725      0.0015275529 
  36390000   290.98216     -13.828602      36.884065      195.66061      0.0022459486 
  36400000   332.70081     -18.905371      28.578445      207.02494      0.0028938777 
  36410000   316.72555     -15.277049      33.389828      205.98842      0.0026934857 
  36420000   277.93321     -20.920895      43.028156      186.97202      0.00044862669
  36430000   299.68136     -14.668963      44.609711      207.7061      -9.2768176e-05
  36440000   320.87023     -23.110159      31.634         198.85803      0.0038410382 
  36450000   285.08066     -16.626514      40.533303      193.01127      0.0011049146 
  36460000   296.22867     -20.376714      43.090366      198.43093      0.00080777061
  36470000   306.70369     -23.87007       34.519888      192.58068      0.0014335624 
  36480000   292.12277     -18.723105      39.804754      194.36338      0.00092908996
  36490000   338.47211     -17.920792      36.618185      219.47269      0.0019418894 
  36500000   287.76159     -17.842478      40.484652      193.33694      0.0011758653 
  36510000   285.86189     -19.844145      27.763822      177.48758      0.0019052484 
  36520000   315.6013      -13.358956      32.468162      206.31797      0.0016371485 
  36530000   292.37022     -18.865158      36.577001      191.14036      0.0027716254 
  36540000   307.90553     -16.060405      39.883301      206.46667      0.00012171411
  36550000   324.12719     -13.235316      30.26368       209.29452      0.0042630229 
  36560000   281.84903     -17.719649      35.291235      184.75913      0.0017067187 
  36570000   300.47756     -18.419346      32.277361      192.09566      0.0019892237 
  36580000   305.04476     -13.068517      34.879686      202.75799      0.0021854394 
  36590000   330.35541     -14.434431      37.271438      218.79762      0.0028057909 
  36600000   295.25183     -18.389786      45.975039      202.72309     -0.00043749352
  36610000   323.35691     -28.728954      30.652967      193.73325      0.0016758688 
  36620000   295.25818     -22.804042      39.160491      191.49805      0.0010584577 
  36630000   284.32178     -25.138609      36.938861      180.45459      0.00053256076
  36640000   320.99584     -22.895257      40.207037      207.72048      0.0014504688 
  36650000   288.97362     -24.430539      37.640717      184.6239       0.00047541612
  36660000   292.61599     -29.478357      39.888354      183.9843       9.4685099e-05
  36670000   282.44761     -27.100832      40.985049      181.42683      0.00029820675
  36680000   271.64626     -33.754232      37.790564      165.17179      0.00070339173
  36690000   299.52298     -35.445294      33.032567      175.25867      0.001950469  
  36700000   313.4642      -20.827216      37.387586      202.50144      0.0026082289 
  36710000   331.43032     -24.129673      28.947472      201.41603      0.0030412573 
  36720000   325.73604     -23.222883      31.830148      201.82776      0.0029556493 
  36730000   299.37728     -28.57571       34.917738      183.927        0.0021701167 
  36740000   293.76118     -24.55446       33.948806      183.64796      0.0022180401 
  36750000   321.74791     -17.845501      35.773628      208.78294      0.00080201335
  36760000   307.41217     -21.035075      41.647308      202.96335      0.00089264746
  36770000   315.22355     -21.685779      40.54562       205.84453      0.001000224  
  36780000   292.16301     -21.318293      32.30184       184.28915      0.0013369052 
  36790000   311.84698     -19.611231      33.329423      198.69996      0.0030996384 
  36800000   303.29955     -19.885374      36.549718      196.57593      0.0025388325 
  36810000   302.69289     -24.606293      25.948639      180.89408      0.0028768229 
  36820000   308.23807     -14.493032      46.075925      214.42392      0.00079349549
  36830000   293.41415     -15.726892      35.155859      193.47673      0.00064443589
  36840000   314.77068     -12.746206      34.907199      208.87704      0.0024171417 
  36850000   288.86614     -16.683221      33.312138      187.97888      0.0018115745 
  36860000   269.10522     -13.515193      39.290125      185.40309      0.00035372056
  36870000   300.17015     -15.6672        36.17312       198.56121      0.00075448509
  36880000   309.0423      -17.574183      37.830932      203.57483      0.00159859   
  36890000   302.06434     -13.231069      45.923225      211.87104     -0.00051266731
  36900000   362.10443     -20.371804      47.076706      241.49844      0.0027590115 
  36910000   279.92195     -15.473216      47.432136      198.00336      0.0016816784 
  36920000   298.06417     -15.208826      41.956644      203.55388     -0.00027624633
  36930000   288.99538     -15.958372      31.79968       187.26794      0.0026507656 
  36940000   307.96732     -20.840138      34.173324      196.01361      0.0017495438 
  36950000   296.74133     -23.077196      35.634667      188.57885      0.0022618609 
  36960000   292.94766     -22.260105      31.946313      183.45725      0.0014291445 
  36970000   309.34777     -28.218305      34.351698      189.63268      0.00096139045
  36980000   328.06291     -21.698817      32.071348      204.97329      0.0034241285 
  36990000   286.32833     -23.329139      31.408245      177.92369      0.0022028992 
  37000000   294.97068     -20.005238      38.488624      193.45445      0.0019653833 
  37010000   318.19205     -21.787059      36.248155      203.20664      0.0027521746 
  37020000   311.31201     -23.486189      38.614352      199.7926       0.0020610219 
  37030000   295.0676      -16.236404      41.22143       200.01358      0.00066432879
  37040000   305.97167     -21.092756      40.560022      200.96391      0.0020806947 
  37050000   302.03346     -24.330066      31.166556      185.99706      0.0021201458 
  37060000   282.94414     -23.168089      33.391064      178.06012      0.00022453265
  37070000   328.20515     -18.539094      40.71837       216.8644       0.00046534702
  37080000   301.23033     -20.681374      37.950133      195.95293      0.00057557907
  37090000   323.20454     -19.487843      37.6267        209.85771      0.0028783477 
  37100000   302.68757     -18.270559      34.173623      195.45164      0.0017384752 
  37110000   288.05033     -11.701073      32.022899      191.18787      0.0023360606 
  37120000   301.70828     -16.818047      28.795617      190.94525      0.003744979  
  37130000   323.76341     -26.668851      34.505942      199.88746      0.0037337511 
  37140000   321.54263     -24.118642      43.315407      209.92981      0.0019355491 
  37150000   314.36354     -18.535037      31.96292       199.90243      0.0037400816 
  37160000   298.26426     -19.415084      40.161875      197.67154      0.0018148543 
  37170000   295.64383     -21.457698      40.954285      194.86695      0.0006277056 
  37180000   276.96174     -32.367698      38.220776      170.14157      0.00046971114
  37190000   305.02751     -21.457727      36.619261      196.09812      0.002481261  
  37200000   299.99797     -28.288502      47.905719      197.57037     -0.00041246921
  37210000   281.45647     -30.130092      27.584189      164.40878      0.0035379458 
  37220000   281.95315     -28.06991       32.170496      171.34989      0.0020827339 
  37230000   309.66651     -20.362481      39.484365      202.81024      0.0016201804 
  37240000   298.99511     -19.490859      40.798399      198.66582      0.0019342428 
  37250000   284.16103     -20.087589      46.106235      194.57763      0.00084840471
  37260000   294.35098     -18.409579      35.670462      191.86435      0.0019277732 
  37270000   283.8066      -15.744239      28.453736      181.05824      0.003366438  
  37280000   291.79139     -19.8599        37.229389      190.45466      0.0024748586 
  37290000   299.97051     -16.076732      45.687722      207.54786      0.00044592357
  37300000   336.44101     -16.665343      40.208585      223.11372      0.002927208  
  37310000   308.03394     -18.101178      32.739673      197.35844      0.0018495468 
  37320000   289.92479     -21.251346      31.910424      182.63701      0.0016899037 
  37330000   294.46664     -19.716433      41.725259      196.6809       0.001132424  
  37340000   305.79803     -14.873252      30.336958      196.85735      0.0032854793 
  37350000   295.17326     -14.011473      40.547102      201.62686      0.00097920883
  37360000   298.55053     -13.126525      29.445874      193.41391      0.003444379  
  37370000   316.10614     -17.790426      31.930773      201.64857      0.003346397  
  37380000   312.13615     -22.542531      38.997435      201.6082       0.0019233241 
  37390000   350.39846     -21.476425      43.187307      229.56066      0.0029729292 
  37400000   286.80479     -11.836429      50.258707      208.54949     -0.0024575984 
  37410000   307.99733     -12.317372      36.019586      206.40044      0.0010377122 
  37420000   295.22558     -14.879467      31.107222      191.35002      0.0025076738 
  37430000   285.22196     -3.6785332      38.549752      204.05953      0.001036751  
  37440000   266.67007     -9.0743243      36.482993      185.59234      0.00084709144
  37450000   290.38946     -13.210136      33.211861      192.25529      0.0014396785 
  37460000   312.36921     -16.366277      34.881569      203.80684      0.0030661902 
  37470000   326.29157     -12.846596      36.188288      216.89172      0.0021045447 
  37480000   309.17903     -16.595048      42.530499      209.33464      0.001675836  
  37490000   305.24164     -15.492571      42.990869      208.5619       0.0017120451 
  37500000   265.64257     -20.621571      36.220597      173.17321      0.00030673043
  37510000   294.62208     -19.766798      34.09764       189.09512      0.0017154318 
  37520000   335.64702     -13.886124      34.897588      220.11097      0.0019767898 
  37530000   275.29352     -17.170973      48.243699      194.37166      0.00041579448
  37540000   309.55272     -22.820523      38.288164      199.08849      0.0029922609 
  37550000   318.2568      -18.761073      33.264767      203.28764      0.0024475058 
  37560000   321.96218     -13.950582      36.226171      213.2575       0.0023878936 
  37570000   282.71195     -18.976068      35.932029      184.65537      0.0020020655 
  37580000   293.00733     -16.562811      40.422734      197.66636      0.0034534105 
  37590000   317.33282     -18.986187      30.853894      200.10357      0.0041899411 
  37600000   314.55224     -19.854619      42.179756      208.91161      0.00051219868
  37610000   299.06068     -20.981064      38.767142      195.18325     -0.00046152458
  37620000   295.54252     -27.291416      34.140601      182.15945      0.0023932254 
  37630000   314.88586     -25.344478      37.582193      199.02209      0.0027063793 
  37640000   338.88498     -19.588976      30.354397      211.78562      0.0035185328 
  37650000   345.42348     -25.714312      40.026429      219.21083      0.0038405376 
  37660000   307.11698     -26.303148      31.482098      187.35497      0.0022204735 
  37670000   310.18017     -29.278254      28.462287      183.17708      0.0035004833 
  37680000   320.39916     -20.240224      38.217849      208.03238      0.0011624371 
  37690000   300.28872     -22.739056      24.68888       180.07545      0.0037270784 
  37700000   286.47114     -12.456812      42.080332      199.55281      0.0020578319 
  37710000   318.36145     -15.993954      33.929433      206.7815       0.001876195  
  37720000   289.78611     -23.152525      29.718855      178.462        0.0024387196 
  37730000   305.78676     -25.351897      44.293753      200.32881      0.00087317677
  37740000   289.36991     -22.545329      28.49047       177.59393      0.0028751362 
  37750000   305.91097     -21.792485      39.023758      198.69191      0.0027033797 
  37760000   287.71719     -21.174913      33.3855        182.87901      0.0014815159 
  37770000   295.24527     -27.280424      26.716102      174.56962      0.0024179542 
  37780000   299.87074     -24.442879      29.506522      182.94133      0.0040753326 
  37790000   285.0462      -16.432692      40.665142      193.31649     -0.00019470204
  37800000   315.83074     -16.683683      29.709161      200.37034      0.0033762516 
  37810000   284.01469     -17.164975      39.171369      190.47857      0.0019663412 
  37820000   266.20357     -18.782961      35.982513      175.10651      0.00097690982
  37830000   266.23117     -15.219511      40.971924      183.67574      0.0010298405 
  37840000   291.27412     -21.193747      37.284671      188.86926      0.0019057788 
  37850000   284.22847     -23.966969      37.214028      181.84604      0.0018898646 
  37860000   293.6571      -19.941775      31.690483      185.94058      0.0026899477 
  37870000   315.42729     -26.677225      41.217656      201.64597      0.0022890982 
  37880000   319.57888     -23.228432      45.087169      211.42692      0.0014565255 
  37890000   323.24157     -24.068302      43.190227      210.86275      0.0018811372 
  37900000   282.81214     -19.458489      32.873258      181.17361      0.002224114  
  37910000   291.09097     -19.172041      48.016009      201.51366      4.8122392e-05
  37920000   315.60501     -19.302167      34.861992      202.77078      0.001681382  
  37930000   316.20951     -25.803171      41.805631      203.57199     -0.00014524088
  37940000   308.4222      -25.07201       32.272624      190.15086      0.0020359425 
  37950000   298.85195     -28.693637      29.488891      178.06861      0.0034654051 
  37960000   282.59216     -25.305634      40.596178      182.9189       0.00096312311
  37970000   274.38667     -23.93253       46.10456       184.93304      0.00069963937
  37980000   294.98395     -26.696303      37.120331      185.40296      0.00048542937
  37990000   317.98923     -24.043816      35.798928      200.38034      0.0033697439 
  38000000   321.55652     -27.452351      35.031503      198.32043      0.003449482  
  38010000   295.2027      -26.998735      38.604918      186.71488      0.00047838362
  38020000   353.06209     -22.059137      35.077051      222.44771      0.0044052841 
  38030000   290.28313     -25.441194      33.245988      179.99529      0.0036966519 
  38040000   306.79476     -15.718418      36.729588      202.99605      0.0016013469 
  38050000   284.58293     -12.742817      42.484447      198.55088      0.0025268227 
  38060000   302.81724     -13.480366      39.35293       205.49806      0.0011102715 
  38070000   326.55968     -19.07294       28.822135      203.45826      0.0051512764 
  38080000   312.63926     -15.811009      34.846378      204.4871       0.0017283686 
  38090000   312.87587     -16.812794      32.220971      201.00026      0.0021775779 
  38100000   331.58748     -27.55048       31.930008      201.07099      0.0031463272 
  38110000   303.97723     -32.051653      30.520201      178.78212      0.0027145808 
  38120000   317.71        -28.232452      36.638177      196.86532      0.0019737297 
  38130000   288.89998     -22.175841      35.028393      184.22259      0.0013212575 
  38140000   297.36163     -21.404564      35.554793      190.53955      0.0014324142 
  38150000   294.00574     -23.103782      45.108551      196.40345     -0.00051573033
  38160000   301.95946     -20.66749       41.730851      200.18003      0.0016692212 
  38170000   303.59103     -22.56466       40.721662      198.24149      0.0009577117 
  38180000   324.36226     -24.595773      40.729204      208.53902      0.00086620063
  38190000   292.74642     -17.77448       41.21216       197.08935      0.00063238953
  38200000   299.41006     -12.783487      33.715941      198.53687      0.00089849314
  38210000   297.6366      -17.57988       34.018047      192.9906       0.0019670578 
  38220000   312.61182     -24.191146      40.288147      201.53245      0.0011956551 
  38230000   288.89648     -27.021253      29.819069      174.16578      0.0017398104 
  38240000   293.85516     -25.749032      38.35628       186.9166       0.0020013532 
  38250000   284.77033     -26.735531      36.866168      179.05104      0.0027257992 
  38260000   314.33565     -27.40446       30.645168      189.69871      0.0049941737 
  38270000   310.85748     -29.180067      33.546213      188.76096      0.00086945633
  38280000   285.99383     -20.382156      41.551096      190.8151       0.00059387094
  38290000   277.25452     -29.008079      39.50724       174.96133      0.0014323783 
  38300000   312.43412     -22.861856      36.257227      198.72542      0.0020144497 
  38310000   294.84113     -18.896317      36.135378      192.13328      0.00261697   
  38320000   314.76637     -25.704699      32.802629      193.81142      0.0020129933 
  38330000   324.12422     -20.291999      35.577596      207.54999      0.0013082188 
  38340000   310.36794     -15.937415      48.149689      216.3167       0.001835387  
  38350000   288.9726      -18.923437      38.097725      190.5874       0.0010739307 
  38360000   304.92212     -20.026059      34.890973      195.73898      0.0024290337 
  38370000   298.02409     -18.980139      37.058678      194.86082      0.0010851595 
  38380000   315.07577     -11.292565      37.88352       213.48798      0.0020508809 
  38390000   289.48153     -15.088016      37.25369       193.88067      0.0012561206 
  38400000   292.69949     -10.393642      34.986099      198.21629      0.0015261661 
  38410000   256.85396     -7.9975332      39.917905      184.28131     -0.00055366265
  38420000   258.91475     -8.1309467      34.348687      179.8011       0.00070264025
  38430000   318.99509     -10.033593      42.725171      221.91347      0.00069382787
  38440000   285.11941     -14.805954      33.627854      187.94937      0.0035899456 
  38450000   297.11141     -23.337305      26.036494      178.94009      0.0033985073 
  38460000   296.909       -16.023031      27.356608      187.45442      0.0049940594 
  38470000   289.39312     -15.738118      32.479406      188.40384      0.0019607498 
  38480000   304.16177     -17.33046       43.127459      206.22004      0.00047893937
  38490000   272.49516     -18.944376      30.069598      172.76423      0.0010890317 
  38500000   271.71195     -19.847774      48.569682      189.89633     -0.00085549113
  38510000   305.03918     -15.192336      36.612667      202.36384      0.0018848572 
  38520000   285.87939     -13.893163      39.576441      195.26156      0.0027069703 
  38530000   323.31806     -16.28716       39.42846       214.9275       0.0011963131 
  38540000   298.44919     -15.677114      43.237211      204.59455      0.00082621069
  38550000   297.72447     -16.955198      34.793375      194.44273      0.00080405221
  38560000   318.14074     -25.599159      29.209219      192.32517      0.0039460174 
  38570000   289.07135     -28.450634      34.199962      177.22102      0.0014165248 
  38580000   333.35746     -27.660381      35.439937      205.52093      0.003244015  
  38590000   283.04597     -24.571744      30.732853      174.05866      0.0028269907 
  38600000   295.44027     -26.765693      36.875932      185.35985      0.0022780538 
  38610000   313.25168     -26.263552      27.822105      187.37356      0.003719871  
  38620000   313.2063      -25.308551      40.747501      201.22704      0.001481552  
  38630000   284.86518     -29.706339      34.162556      173.43289      0.0030117861 
  38640000   316.78859     -23.385859      31.421593      195.94877      0.0026698478 
  38650000   308.72727     -18.906695      32.260265      196.48478      0.0025153072 
  38660000   290.99955     -30.389335      36.588386      178.81452      0.0017230942 
  38670000   306.98513     -30.123069      26.399326      178.37407      0.0039247888 
  38680000   261.82382     -26.770552      34.063415      162.60183      0.00089481579
  38690000   279.60692     -28.916533      31.815285      168.75632      0.0021360331 
  38700000   305.19183     -33.273504      36.551143      184.3117       0.00080772726
  38710000   294.97898     -32.119509      36.955331      179.81181      0.0015236854 
  38720000   304.52057     -27.017055      33.261102      186.87993      0.0011663835 
  38730000   318.90889     -24.993225      43.228054      207.40559      0.00036986999
  38740000   280.55076     -27.503985      39.634309      178.54776     -0.00033140308
  38750000   270.90754     -23.760715      49.693805      186.63035      0.00096353908
  38760000   297.29623     -28.101016      39.392717      187.64224      0.0016334208 
  38770000   307.73389     -21.822429      33.301568      194.0211       0.0020604992 
  38780000   299.55102     -26.628333      41.235113      192.29482      0.0024035177 
  38790000   279.20627     -21.496189      38.379812      182.50354      0.00088239901
  38800000   294.0744      -27.447662      35.896481      182.88822      0.0016025629 
  38810000   288.45209     -18.759658      35.906598      188.2513       0.0013273937 
  38820000   276.20807     -27.959949      40.345138      176.22662      0.00023482987
  38830000   321.3621      -20.744483      42.65926       212.54073      0.001520416  
  38840000   308.596       -24.569008      34.862691      193.34703      0.0025522702 
  38850000   270.28666     -23.881176      52.187105      188.6349      -0.00097285484
  38860000   331.87969     -27.013741      31.812967      201.66402      0.0042779835 
  38870000   323.9173      -21.322356      24.32525       195.14455      0.0048846013 
  38880000   315.01241     -24.646723      31.566257      193.77897      0.0030904149 
  38890000   296.94892     -24.022307      37.38152       189.50373      0.0029125727 
  38900000   297.11903     -22.143992      41.143551      195.24498      0.0022912159 
  38910000   296.21672     -23.812431      47.413244      199.311        2.5702684e-05
  38920000   281.40534     -25.732263      32.871621      174.06371      0.0016936954 
  38930000   287.81053     -25.13361       36.458614      182.0488       0.0022458735 
  38940000   298.36474     -19.770049      30.405179      187.61948      0.0012207487 
  38950000   284.33543     -26.271458      44.365737      186.75671      0.00040352277
  38960000   329.40178     -26.127798      38.177044      207.44419      0.0018331497 
  38970000   309.53646     -28.343532      29.546887      184.81456      0.0028103326 
  38980000   302.47198     -29.969619      28.425825      177.8769       0.0033181136 
  38990000   303.77265     -18.953778      27.811084      189.04953      0.0032099346 
  39000000   306.59409     -29.681927      32.772044      184.95597      0.0023096943 
  39010000   297.18807     -24.859651      41.033243      192.45997      0.0015206219 
  39020000   265.45086     -23.131887      45.379029      179.7076      -0.00090434223
  39030000   321.28709     -18.206008      37.137853      209.5133       0.0015022919 
  39040000   290.32627     -19.649649      32.220334      184.78677      0.0022451826 
  39050000   341.70958     -23.695951      42.053589      221.05334      0.001981256  
  39060000   338.23428     -22.986445      34.863481      212.51125      0.0024805765 
  39070000   291.65451     -23.878862      44.940795      194.0659       0.0013168262 
  39080000   271.15842     -26.298492      43.732372      178.27996      0.00069053764
  39090000   312.86223     -22.531301      38.883281      201.93597      6.6660293e-05
  39100000   283.22967     -27.467925      37.446136      177.98473      0.00037838819
  39110000   322.46252     -20.541801      36.131837      206.86874      0.0037473757 
  39120000   293.28345     -17.190226      46.420557      203.20056      0.0011199015 
  39130000   337.80064     -23.350085      30.043392      207.0703       0.0041837894 
  39140000   292.0009      -22.521078      33.980717      184.66908      0.0019264543 
  39150000   298.77083     -19.989786      42.723958      199.95941      0.00084891992
  39160000   292.92184     -21.831197      37.52039       189.44492      0.00097461226
  39170000   287.39949     -19.059924      37.308609      188.72866      0.0021932429 
  39180000   309.8318      -25.16679       33.284214      191.90382      0.0038107836 
  39190000   306.27629     -29.448056      37.671646      189.90093      0.0035220038 
  39200000   298.35936     -23.14988       31.984636      185.81592      0.0033076818 
  39210000   286.90623     -26.072105      36.199279      180.31456      0.00044356377
  39220000   297.28137     -20.607452      39.800198      195.53447      0.0011003077 
  39230000   302.69146     -30.746717      27.723464      176.52763      0.0019483966 
  39240000   288.84282     -26.732198      37.65849       182.26242      0.00060904619
  39250000   289.16566     -24.192345      35.840049      183.17534      0.001427823  
  39260000   319.25224     -28.289082      27.131386      188.21673      0.0047675888 
  39270000   291.09243     -30.880857      26.886242      168.67594      0.003158326  
  39280000   299.19526     -24.294164      34.175489      187.35833      0.0023143729 
  39290000   312.99613     -27.60546       41.244397      199.30236      0.0015037306 
  39300000   283.72483     -24.262349      34.440121      178.47801      0.0024470035 
  39310000   312.82372     -23.287181      36.502096      198.77606      0.0026190255 
  39320000   307.91172     -16.214382      45.019792      211.45285      0.0013220446 
  39330000   294.74901     -11.850265      32.416392      195.4057       0.00198927   
  39340000   325.22391     -6.5013189      37.091895      223.50729      0.0021169686 
  39350000   272.73662     -16.59156       24.760719      169.9514       0.0018719087 
  39360000   328.53796     -17.380069      39.565268      217.06774      0.0023824931 
  39370000   295.15431     -18.506589      34.59898       191.17238      0.00047916232
  39380000   316.04991     -23.114201      39.106427      203.46709      0.0017139707 
  39390000   277.26118     -19.083313      34.91075       180.29356      0.00072378865
  39400000   302.0989      -27.21094       34.580591      186.56904      0.0022949192 
  39410000   277.44821     -22.565709      41.362091      183.37344      0.0019635018 
  39420000   284.6044      -17.636715      41.082782      192.26805      0.00099016322
  39430000   271.00201     -20.419998      36.692215      177.02551      0.00081005586
  39440000   298.61253     -27.866976      34.110429      183.37479      0.00269905   
  39450000   303.07155     -21.721138      27.280594      185.3358       0.0033857102 
  39460000   298.52697     -21.102474      41.483101      197.46121      0.0025601014 
  39470000   293.99981     -23.187052      28.842581      180.05069      0.0018454452 
  39480000   331.23738     -14.820671      38.016067      219.67918      0.001843817  
  39490000   270.53017     -19.544743      33.732707      174.66137      0.00027046515
  39500000   300.84333     -23.381763      30.476194      185.54904      0.0021654155 
  39510000   294.35886     -24.407103      42.573921      192.77496      0.0010379133 
  39520000   347.90374     -19.330466      29.616954      216.65645      0.003737467  
  39530000   297.08074     -18.050476      42.102396      200.27463      0.0012869281 
  39540000   264.66036     -17.966161      34.89624       173.92163      0.0016341644 
  39550000   312.78847     -8.0488921      34.100337      211.59168      0.0020588089 
  39560000   272.66985     -20.161603      40.336358      181.91738      0.00086150504
  39570000   293.41791     -17.968273      33.335786      189.4175       0.0016158996 
  39580000   318.26221     -21.222791      34.667347      202.23172      0.0017108306 
  39590000   293.76292     -16.312966      34.269576      192.21125      0.0022549422 
  39600000   291.31495     -14.612654      36.724582      194.91448      0.00013839425
  39610000   329.86224     -18.963036      40.42222       217.12726      0.0013330278 
  39620000   304.65304     -20.619579      48.325756      208.42064      0.00028982656
  39630000   305.66509     -21.328348      41.246333      201.23277      0.001323062  
  39640000   293.70456     -24.073496      36.7044        186.85093      0.0015393107 
  39650000   310.86418     -22.961808      40.720932      202.15791      0.00045405922
  39660000   340.43027     -29.989991      36.852844      208.79969      0.0028700391 
  39670000   314.25256     -35.878924      41.725839      192.25563      0.00089096577
  39680000   299.6495      -34.906594      38.359124      181.19898      0.0020641416 
  39690000   289.64741     -35.679436      34.723835      170.8578       0.0016654957 
  39700000   290.07253     -33.257185      32.37361       171.182        0.0037045372 
  39710000   318.98796     -23.360154      41.5312        207.38871      0.0016683793 
  39720000   317.02302     -26.424467      46.474542      208.10217     -1.5765694e-05
  39730000   304.18592     -29.168816      28.625166      179.89372      0.0043746387 
  39740000   286.67738     -29.38385       35.080118      175.7479       0.001787903  
  39750000   280.83336     -22.293426      33.762049      178.05369      0.0026915469 
  39760000   274.72148     -28.719647      36.145556      170.38553      0.0015721078 
  39770000   297.08774     -26.791337      36.559857      185.99538      0.0015108765 
  39780000   309.78359     -29.885539      32.633729      186.50599      0.0024469051 
  39790000   262.98454     -23.912256      29.354192      161.43942      0.0016804907 
  39800000   322.60038     -23.273411      34.587738      202.67481      0.0049913246 
  39810000   289.38129     -19.81737       27.798926      179.6371       0.003019687  
  39820000   275.52187     -14.621869      36.108556      184.92108      0.0016631465 
  39830000   316.32411     -17.193432      38.572235      209.01632      0.0025243044 
  39840000   302.15451     -23.233368      40.009605      196.00861      0.00073329554
  39850000   313.95452     -21.008222      38.807674      204.03137      0.0008342837 
  39860000   297.3947      -20.221349      30.109157      186.29675      0.0039144325 
  39870000   307.84688     -17.044458      43.31805       208.88257      0.001562226  
  39880000   323.24316     -9.8767235      36.68768       218.55272      0.0015054222 
  39890000   311.21738     -17.672183      32.190208      199.12632      0.002908015  
  39900000   269.67971     -18.483123      36.68473       178.17054      0.0014086765 
  39910000   316.35519     -12.201118      49.529248      224.98408      0.00045417448
  39920000   318.44042     -9.1606305      41.145506      220.87775      0.0020134918 
  39930000   294.859       -18.804149      47.537894      203.63856      0.001028672  
  39940000   301.99333     -15.56971       29.245454      192.81251      0.004303919  
  39950000   277.14319     -13.55973       42.680497      193.5169       0.0016988372 
  39960000   304.16185     -12.3709        35.568867      203.62106      0.0011760225 
  39970000   308.65364     -14.669031      38.554092      206.9726       0.0016392429 
  39980000   297.64271     -14.238039      37.403645      199.72167      0.0018082249 
  39990000   312.16336     -17.002071      35.401048      203.56841      0.0029009807 
  40000000   278.54902     -19.834437      41.473596      186.8692       0.0014525925 
  40010000   273.53678     -11.529984      34.821202      185.5481       0.0013588813 
  40020000   306.37249     -8.8084413      42.632904      215.55886      0.0022512181 
  40030000   299.81016     -15.779198      40.171811      202.23436      0.00050696247
  40040000   277.14163     -14.561949      48.208524      198.04178     -0.00079025953
  40050000   304.28113     -13.673414      36.983363      203.80379      0.0017641801 
  40060000   311.39841     -14.39311       35.387116      205.70969      0.0030972577 
  40070000   308.0888      -17.194013      45.442652      211.00112      0.002001473  
  40080000   317.37294     -29.915752      38.221753      196.56566      0.0022913986 
  40090000   305.66612     -21.871368      44.06659       203.51062      0.00029090057
  40100000   311.63205     -23.611125      31.588276      192.83143      0.0028835359 
  40110000   297.04953     -20.341982      35.63911       191.50133      0.00093864323
  40120000   296.01787     -27.278105      33.639575      181.9537       0.0019639917 
  40130000   288.48722     -26.308633      43.177853      187.99442      0.00065400036
  40140000   307.98547     -27.757531      33.847779      188.78144      0.0023152844 
  40150000   271.83396     -23.831725      31.581047      168.99612      0.0031117037 
  40160000   290.48701     -23.109848      33.002025      182.20361      0.00192876   
  40170000   278.65951     -29.281353      36.826484      172.84071      0.001225371  
  40180000   265.26906     -20.727681      37.777354      174.40229     -0.00027710109
  40190000   302.46282     -17.362128      39.746735      201.79986      0.0026632071 
  40200000   297.67424     -17.96171       31.545764      190.15882      0.002320755  
  40210000   306.31986     -25.288315      37.629072      194.04394      0.0038795149 
  40220000   316.95984     -26.558089      37.317363      198.77389      0.0037590182 
  40230000   279.01417     -24.845405      37.127418      177.78797      0.0021745254 
  40240000   313.00793     -25.698567      35.985401      195.95725      0.0013643538 
  40250000   334.76226     -21.845205      34.061861      210.79133      0.0030247637 
  40260000   316.92127     -23.409318      33.87139       198.45381      0.0038855012 
  40270000   322.14841     -33.955669      27.077015      184.21373      0.0047077107 
  40280000   304.5148      -23.261248      35.93505       193.30626      0.004092076  
  40290000   305.56032     -30.217638      39.418889      190.45389      0.0027806628 
  40300000   307.34039     -25.601976      30.761248      187.46781      0.0022029618 
  40310000   322.93078     -18.905703      32.639568      205.29033      0.0038234904 
  40320000   305.08087     -22.278397      49.030245      207.72008      0.00091582938
  40330000   295.68502     -16.770797      35.953895      194.5779       0.0028217567 
  40340000   313.62814     -15.682167      36.054156      206.41031      0.002637313  
  40350000   305.99063     -16.293344      32.752696      197.96724      0.0043998317 
  40360000   317.21986     -12.626928      41.819711      217.36164      0.0022804956 
  40370000   291.49879     -10.635381      38.151293      200.42752      0.0022534357 
  40380000   301.3462      -16.383724      35.066492      197.43567      0.0018604008 
  40390000   340.69453     -15.184639      32.689643      219.59859      0.0047178291 
  40400000   274.52275     -8.6586806      31.304863      185.48792      0.002584298  
  40410000   290.53211     -13.432299      40.141311      199.0472       0.00071564796
  40420000   332.54041     -17.618712      29.010228      208.64824      0.0047045914 
  40430000   314.1124      -22.999115      34.201633      197.52809      0.0021507903 
  40440000   290.56315     -23.499863      40.194822      189.05156      0.0020548037 
  40450000   321.87574     -18.670081      37.71941       209.97997      0.0031991376 
  40460000   319.13897     -24.985873      36.558051      200.87942      0.0024094129 
  40470000   284.72201     -20.868393      39.050597      187.07395      0.0043702445 
  40480000   305.35366     -21.584608      37.589308      197.13475      0.0038097816 
  40490000   285.48117     -17.816621      33.129141      184.65458      0.0024980018 
  40500000   311.95858     -26.841216      32.483549      190.6903       0.0015988166 
  40510000   317.44897     -26.09477       32.799882      195.00987      0.0021513911 
  40520000   274.03496     -24.31465       32.630885      170.86862      0.0010764621 
  40530000   293.22059     -30.726306      33.989121      177.19576      0.0025386475 
  40540000   306.27023     -24.315482      30.597406      187.95566      0.0022991378 
  40550000   303.10104     -33.797715      37.477498      183.47362      0.00058325372
  40560000   301.58953     -27.661329      31.779656      183.01557      0.0035199088 
  40570000   305.59241     -23.834763      40.966902      198.40381      0.0010523536 
  40580000   285.92041     -27.936179      27.679207      169.34564      0.0028692514 
  40590000   315.25821     -28.047329      30.282419      189.24033      0.0031805862 
  40600000   309.82277     -20.32393       37.193488      200.6506       0.0039798421 
  40610000   319.6158      -24.070988      34.439878      199.95897      0.0023859946 
  40620000   326.95484     -29.875525      36.520729      200.58867      0.0022884642 
  40630000   308.31419     -29.964988      40.741579      193.66277      0.0010551169 
  40640000   278.92696     -20.226162      28.623515      173.85158      0.0037295423 
  40650000   282.84082     -27.266978      43.63231       184.14119     -0.00043615726
  40660000   270.70251     -23.166723      42.447103      179.85602     -0.00033758073
  40670000   314.11006     -23.847306      39.492365      201.96924      0.0016531928 
  40680000   286.58669     -26.4947        36.914717      180.41785      0.00063146279
  40690000   305.06637     -34.435218      41.069114      187.59353      0.0020023182 
  40700000   285.57202     -31.948119      31.616633      169.06447      0.0015904518 
  40710000   286.65296     -23.307445      35.032969      181.76267      0.0012166554 
  40720000   293.40778     -18.736966      35.180745      190.48776      0.0021288528 
  40730000   306.16716     -16.228198      38.185973      203.57038     -5.8374916e-05
  40740000   330.41747     -20.171358      41.22079       217.04686      0.00091307188
  40750000   304.557       -24.187517      33.775118      190.24509      0.0032755449 
  40760000   304.95392     -25.295682      36.513985      192.11123      0.0015330852 
  40770000   310.63311     -22.14866       34.983089      197.09615      0.0026368613 
  40780000   327.1414      -16.141431      40.330671      218.24337      0.0022773538 
  40790000   304.50845     -20.724675      30.769655      190.67367      0.0015482452 
  40800000   310.44605     -25.828171      37.378368      195.70096      0.0025971698 
  40810000   321.71265     -24.538903      33.459909      199.7549       0.0046723655 
  40820000   311.72802     -22.332405      36.995031      199.57383      0.0018692612 
  40830000   308.53871     -21.24155       36.518628      198.29644      0.00029600288
  40840000   317.35031     -22.8161        32.664389      198.09453      0.0041505933 
  40850000   289.32121     -18.405615      31.323738      184.53802      0.003147882  
  40860000   304.25975     -21.143315      38.482258      197.82011      0.0014850492 
  40870000   343.17435     -19.349066      41.116215      225.33172      0.0026396621 
  40880000   300.93893     -21.746011      47.053256      203.81856      0.0014738261 
  40890000   286.32511     -20.786858      33.868488      182.9243       0.001112939  
  40900000   274.65526     -17.816491      35.473777      180.57763      0.0019672274 
  40910000   305.96994     -17.793608      34.344718      198.04673      0.002182019  
  40920000   286.12584     -19.279592      40.348343      190.79322      0.001306302  
  40930000   289.99614     -21.241272      34.149698      184.92869      0.00059255309
  40940000   305.50925     -12.639035      33.596259      202.17957      0.0026582065 
  40950000   297.06476     -16.872102      38.629805      197.97093      0.0023273181 
  40960000   308.39919     -10.565946      42.51665       214.8873       0.0010437303 
  40970000   297.38255     -10.869848      31.925751      197.45764      0.0030051631 
  40980000   287.43616     -10.884022      34.232156      193.84986      0.0017208541 
  40990000   299.78595     -18.015253      37.507887      197.32002      0.0021745761 
  41000000   306.11618     -17.744955      42.879636      206.71704      0.00069757268
  41010000   296.38483     -18.390394      34.761217      192.18073      0.0027703133 
  41020000   326.23121     -13.730086      28.865445      208.64958      0.0039938659 
  41030000   307.29752     -11.111882      42.846564      214.01779     -0.00099890719
  41040000   293.13078     -11.933046      37.338017      199.28464      0.0005045166 
  41050000   292.14065     -12.303879      40.235034      201.2235       0.00061562235
  41060000   291.27526     -12.430881      28.180041      188.52817      0.0030601692 
  41070000   292.72794     -17.221948      45.743748      202.16251      0.00097476786
  41080000   261.49272     -17.623792      37.299609      174.78838     -0.00013559233
  41090000   315.93657     -15.773846      35.064284      206.69807      0.001983709  
  41100000   317.48776     -24.949145      36.973217      200.35184      0.0021840116 
  41110000   278.20161     -19.69753       41.734561      187.061       -0.00043930707
  41120000   318.77838     -16.233281      36.431977      209.29204      0.0037856843 
  41130000   282.26084     -13.277476      46.591464      200.74581      0.00053533379
  41140000   308.04813     -8.5441428      32.280768      206.46499      0.0018526557 
  41150000   317.21298     -10.076818      36.929102      215.01706      0.0031822254 
  41160000   308.76924     -11.086686      36.715273      208.7847       0.0018391207 
  41170000   305.73256     -19.303007      32.091025      194.14283      0.0025421664 
  41180000   311.88809     -11.275396      33.398872      207.12963      0.0031735425 
  41190000   315.65398     -15.237135      36.666118      208.66899      0.0038625609 
  41200000   319.45322     -14.52585       32.040042      207.00783      0.0027196609 
  41210000   284.86008     -20.257461      32.812761      181.52894      0.0026801797 
  41220000   281.46196     -13.658396      39.526057      192.82561     -0.00022217258
  41230000   307.51443     -12.575484      34.052309      203.8886       0.0038477032 
  41240000   275.79247     -12.865283      38.209547      188.93917      0.00020112908
  41250000   302.16307     -16.160581      32.764032      195.8409       0.0030142321 
  41260000   292.46415     -19.34019       44.024771      198.16881      0.0014232965 
  41270000   326.69853     -19.168729      30.768311      205.39101      0.0051526285 
  41280000   312.23339     -17.986567      40.172778      207.39719      0.0010918719 
  41290000   306.64585     -13.36984       38.982101      207.50882      0.0017088328 
  41300000   308.95431     -13.841241      38.412286      207.83694      0.0032103292 
  41310000   310.80313     -22.786314      34.170987      195.74725      0.0020562458 
  41320000   281.09822     -17.474446      46.311829      195.57956      0.00054433514
  41330000   308.1533      -24.978243      42.032841      199.84534      0.0014738112 
  41340000   306.17262     -23.792011      35.542329      193.36616      0.0032688864 
  41350000   313.32685     -30.205211      35.129391      190.78378      0.0021877436 
  41360000   306.39132     -26.424741      48.05733       203.37816      0.00019089744
  41370000   293.63715     -20.240504      33.107765      187.0473       0.0023347003 
  41380000   342.70781     -18.168309      40.818566      225.93809      0.0020532056 
  41390000   302.51899     -19.615784      33.779448      193.61224      0.0017007367 
  41400000   308.00406     -22.968505      34.889222      194.62294      0.0025081615 
  41410000   301.88063     -16.416955      30.52291       193.17587      0.0022037898 
  41420000   298.37908     -22.873274      36.410666      190.53025      0.0036995347 
  41430000   284.96379     -13.285181      32.959339      188.70932      0.0036224097 
  41440000   353.3197      -13.71822       30.691211      226.55559      0.0055319017 
  41450000   280.06649     -14.225394      38.014499      189.91928     -0.00054364936
  41460000   305.87528     -19.16676       47.649183      209.92189     -0.0005238299 
  41470000   310.42512     -25.06421       36.88488       195.95902      0.0017224901 
  41480000   320.16926     -21.155635      31.699765      200.46252      0.0030914164 
  41490000   289.27776     -21.803479      37.049806      186.84046      0.00076513558
  41500000   292.81675     -21.706903      34.332943      186.31943      0.0011580851 
  41510000   304.91763     -21.822737      27.926679      186.97535      0.0037303397 
  41520000   289.62344     -21.517993      42.7473        193.02848     -0.00045478016
  41530000   321.51072     -29.227319      36.305833      197.79263      0.0019904291 
  41540000   323.73104     -30.91236       39.323973      200.44278      0.0021559172 
  41550000   306.16025     -29.828562      43.458196      195.23814      0.0016869397 
  41560000   308.96594     -32.439145      34.620035      185.45367      0.0018907314 
  41570000   313.05556     -31.817173      31.333006      185.21451      0.0025213722 
  41580000   306.14661     -42.368077      44.224244      183.45658      0.0020545807 
  41590000   327.58856     -32.232753      34.18621       196.27283      0.0024069064 
  41600000   309.33773     -30.369182      46.811744      199.93589      0.0010044928 
  41610000   341.41078     -27.563535      40.249739      215.20466      0.0018851085 
  41620000   308.68709     -28.276634      36.423663      191.25441      0.001572027  
  41630000   274.79853     -29.07358       30.783645      164.71539      0.0030961604 
  41640000   302.02659     -24.250831      29.752506      184.65817      0.0030718628 
  41650000   294.44527     -27.723867      35.564516      182.50005      0.00092596986
  41660000   278.31678     -23.632232      37.886655      179.34671      0.00090282752
  41670000   283.16273     -24.769815      36.80998       180.00697      0.0024584314 
  41680000   280.78842     -24.432488      35.929406      178.05533      0.0017244218 
  41690000   284.80014     -12.483515      31.150799      187.60537      0.0033823604 
  41700000   307.71279     -20.338666      31.650954      193.84173      0.0022965614 
  41710000   309.98412     -25.305674      41.697982      200.26906      0.00082642212
  41720000   313.29778     -19.616483      37.259359      203.48523      0.0013260274 
  41730000   295.31536     -15.565104      39.559676      199.17009      0.0014285963 
  41740000   315.27493     -15.58255       35.97249       207.4051       0.0010342978 
  41750000   300.66019     -18.601812      48.793345      208.5375      -0.0001952414 
  41760000   312.37775     -16.727353      44.360081      212.92934      0.00092501933
  41770000   291.15387     -13.8783        38.940796      197.7695       0.0012065512 
  41780000   276.39026     -20.286573      34.393641      178.05658      0.001850378  
  41790000   253.50393     -28.176391      35.811336      158.00871      0.0033434549 
  41800000   310.84448     -22.066371      45.483423      207.80415      0.00085457685
  41810000   307.0894      -26.384228      45.070447      200.84588     -0.00016124803
  41820000   305.80381     -31.546956      35.107264      184.95738      0.0019403339 
  41830000   307.9834      -35.458678      36.711922      183.94321      0.0019059509 
  41840000   318.57549     -31.423395      35.303919      192.85351      0.0026117814 
  41850000   320.68454     -29.669801      37.011692      197.56593      0.00065222651
  41860000   272.43751     -29.264337      41.034319      173.37479      9.9866908e-05
  41870000   273.87511     -20.122904      37.265383      179.60005      0.0016891424 
  41880000   290.25962     -19.85522       36.205646      188.52698      0.00064304878
  41890000   285.40795     -20.578478      44.21442       192.93457     -0.00069067366
  41900000   311.20586     -13.985961      31.793657      202.40916      0.0017974395 
  41910000   271.40327     -19.915619      39.308422      180.38412     -0.00058436924
  41920000   314.35818     -20.320753      31.863417      198.01403      0.0043694417 
  41930000   296.16909     -25.24107       32.861779      183.30265      0.00029210939
  41940000   284.21127     -21.297398      36.868088      184.15947      0.00013686542
  41950000   307.94685     -22.485936      44.806819      204.98916     -0.00024764588
  41960000   299.43584     -22.534506      46.558429      201.64363      0.00093149332
  41970000   313.51055     -21.788644      38.247298      202.42722      0.0015323003 
  41980000   288.18562     -13.644924      38.636825      195.93819      0.00040530775
  41990000   280.99668     -11.370039      36.779749      192.09166      0.00096723608
  42000000   305.1473      -8.2278744      35.473741      208.25351      0.0026631499 
  42010000   309.49462     -13.241162      37.619369      207.9646       0.0017968361 
  42020000   287.29557     -15.69297       45.697575      200.42293     -0.001275251  
  42030000   304.58181     -13.72373       37.603534      204.55201      0.0017889328 
  42040000   311.3784      -11.793982      32.538781      205.44861      0.0031820852 
  42050000   313.34391     -13.842173      34.817083      206.84463      0.0025035057 
  42060000   296.87817     -16.357073      38.149153      197.89463      0.0017515919 
  42070000   305.81079     -7.9547686      29.948634      203.39508      0.0031493196 
  42080000   296.75281     -9.6724798      31.910348      198.26606      0.0014313584 
  42090000   318.33965     -9.2521221      35.470162      215.05114      0.0023143789 
  42100000   290.39462     -8.7622678      25.472531      188.96689      0.0030382888 
  42110000   305.8098      -9.1951864      44.94345       217.14889      0.0019578205 
  42120000   283.61559     -17.538679      27.982169      178.67893      0.0013552138 
  42130000   287.08357     -24.425972      38.060827      183.92743      0.0019243402 
  42140000   286.68673     -17.430901      36.352859      188.97914      0.00070864417
  42150000   279.38817     -15.587115      33.638268      183.77896      0.00099598085
  42160000   285.1324      -14.335035      47.287354      202.0875       0.00046064305
  42170000   313.29418     -11.865858      37.497227      211.47159      0.002037918  
  42180000   313.12737     -16.442312      34.99889       204.29785      0.0024873127 
  42190000   293.70566     -15.054166      29.530052      188.69656      0.0035443038 
  42200000   302.0842      -17.703952      40.694291      202.18101     -6.410925e-05 
  42210000   292.97322     -15.612741      33.062983      191.23645      0.0021580697 
  42220000   318.69425     -11.197362      34.060076      211.90615      0.0023047285 
  42230000   302.55104     -9.7981819      38.233198      207.9026       0.0031320372 
  42240000   340.86837     -8.588586       45.942311      239.55043      0.0019341529 
  42250000   310.09579     -8.5621009      37.197984      212.57888      0.0021831008 
  42260000   331.42569     -16.903177      41.240336      220.93265      0.0026072776 
  42270000   288.79265     -16.924497      39.925598      194.30747     -8.1902321e-05
  42280000   325.64366     -18.510078      42.822531      217.47815      0.0018659653 
  42290000   299.2732      -18.806294      35.528874      194.24582      0.0018374813 
  42300000   334.00411     -18.907394      39.399269      218.61683      0.0012025858 
  42310000   296.22464     -19.395733      36.91083       193.22998      0.00128424   
  42320000   349.35006     -18.487178      36.152991      224.8937       0.0030427758 
  42330000   315.43135     -11.300087      36.883128      212.69099      0.0017322375 
  42340000   303.31215     -9.4453313      39.787992      210.26173      0.00098283163
  42350000   293.84197     -13.581013      29.922558      190.64308      0.0019669634 
  42360000   313.27916     -9.3582961      43.144741      219.61775      0.0012170134 
  42370000   299.687       -8.9354878      36.093002      204.92621      0.0010469263 
  42380000   316.85748     -14.27325       31.189287      204.86994      0.0033925876 
  42390000   303.53371     -11.198541      35.883518      204.73547      0.0020126489 
  42400000   284.0317      -17.072822      42.445812      193.85525     -3.1809516e-05
  42410000   308.43903     -23.523167      37.136214      196.57328      0.00079310113
  42420000   304.99672     -23.07304       35.36169       193.20697      0.0014160132 
  42430000   317.20769     -25.655115      32.779797      195.28632      0.001247409  
  42440000   292.32006     -14.631925      42.334007      201.10085      0.0020138875 
  42450000   301.68697     -12.36547       51.092184      217.68175      0.0017830095 
  42460000   267.7776      -17.916705      34.567814      175.49175      0.0013106099 
  42470000   330.93746     -12.80101       33.674141      217.17901      0.0029793512 
  42480000   306.98667     -17.475819      37.374997      201.9979       0.00015593773
  42490000   290.6909      -13.953085      38.372696      196.85199      0.0017878908 
  42500000   313.44048     -11.421994      33.505935      208.01094      0.0030142159 
  42510000   330.98351     -14.921509      43.739378      225.15106      0.0016253844 
  42520000   277.21993     -16.224278      24.770912      172.98829      0.0035357323 
  42530000   306.93211     -21.069124      43.738213      204.73544      0.00027421284
  42540000   290.01102     -14.888701      33.063813      190.2042       0.00081742252
  42550000   278.39518     -18.254699      30.88555       177.76964      0.0014882151 
  42560000   303.4761      -19.439877      35.541337      196.11778      0.001913155  
  42570000   280.43879     -19.232697      34.019704      181.13803      0.0026038853 
  42580000   286.07899     -17.259639      37.565916      190.00296      0.0022807357 
  42590000   316.02576     -21.971783      32.314761      197.80352      0.0031298445 
  42600000   295.82208     -21.673119      36.883197      190.68617      0.0013492385 
  42610000   287.10738     -17.414833      36.941061      189.83293      0.002466441  
  42620000   283.16675     -19.323891      38.18047       186.82577      0.0014087344 
  42630000   323.89238     -21.783892      39.896603      210.23958      0.0011325474 
  42640000   274.29913     -23.637592      33.649844      172.72134      0.0019161914 
  42650000   303.37924     -16.608522      30.134621      193.48496      0.0034392472 
  42660000   288.38804     -16.510803      48.245538      202.8011       0.0005862411 
  42670000   297.23383     -11.426283      47.24129       212.12853     -0.00088473152
  42680000   282.28806     -17.434894      31.998044      182.01112      0.0030266661 
  42690000   286.03665     -22.80753       44.173549      191.03758      4.2720917e-05
  42700000   288.59314     -20.852055      31.971991      182.30796      0.0027576024 
  42710000   295.05969     -15.74056       37.901333      197.18463      0.001708734  
  42720000   274.3084      -22.901658      35.955946      175.76887      0.00056298042
  42730000   308.57177     -7.456885       40.585436      216.16752      0.0022369132 
  42740000   286.50341     -14.758657      34.532657      189.72244      0.0028856887 
  42750000   287.52515     -16.08287       34.235887      188.70753      0.0017338567 
  42760000   294.25887     -20.474197      32.904077      186.97871      0.0031302951 
  42770000   298.50507     -12.03461       34.468136      199.50112      0.0031325481 
  42780000   297.38693     -8.0912806      32.725133      201.03819      0.0021650189 
  42790000   307.89079     -13.268359      34.265542      203.63221      0.0022598899 
  42800000   308.23386     -16.191339      35.469574      202.11677      0.0030234333 
  42810000   286.5157      -16.128216      41.172232      194.99974     -0.0005016862 
  42820000   285.90568     -17.535216      36.865641      188.9243       0.0021383692 
  42830000   291.40005     -16.304812      32.779435      189.32765      0.0010405621 
  42840000   295.54378     -16.607343      36.406405      195.11008      0.00044746158
  42850000   279.35958     -11.843574      41.774559      195.64184     -0.00010434034
  42860000   304.98605     -17.94151       40.55532       203.5258       0.0003517002 
  42870000   292.81084     -22.447334      38.432826      189.67538      0.0019070141 
  42880000   293.2698      -19.192722      37.921486      192.69089      0.0019436745 
  42890000   289.00219     -18.866491      36.964176      189.52835      0.0016359188 
  42900000   273.5435      -14.411191      36.233187      184.08286      0.00093480312
  42910000   322.11733     -13.437273      33.370603      211.00727      0.0026192353 
  42920000   297.29806     -18.188757      35.024076      193.18694      0.0029515937 
  42930000   298.83658     -23.581555      39.579631      193.26232      0.0027812413 
  42940000   280.40735     -26.668934      36.528736      176.19217      0.0013630266 
  42950000   283.15111     -27.812965      39.412203      179.55916      0.0014216822 
  42960000   307.60807     -21.878862      39.962257      200.55072      0.0015143599 
  42970000   317.82393     -21.720173      40.919907      207.72691      0.0020988631 
  42980000   290.01043     -19.068887      22.059108      175.01895      0.0038280342 
  42990000   298.39688     -14.928127      28.635251      190.71055      0.0030482432 
  43000000   290.20927     -19.374746      34.977534      187.74947      0.0030702271 
  43010000   287.63305     -19.757605      39.820443      190.68136      0.0028401941 
  43020000   294.63714     -20.397596      31.184599      185.56022      0.0030348151 
  43030000   304.54669     -20.227538      36.496022      196.91985      0.0026198576 
  43040000   298.71424     -15.008981      39.011513      201.1942       0.00084746359
  43050000   309.02039     -17.386163      44.928587      210.84751      0.0012157255 
  43060000   287.47717     -18.154516      36.596814      188.96835      0.001625356  
  43070000   292.67715     -24.667529      34.861281      183.80434      0.0011713635 
  43080000   304.69676     -21.635687      42.575743      201.68044      0.00092309451
  43090000   313.82166     -14.153562      27.249615      199.24916      0.0041221309 
  43100000   304.77497     -17.591388      35.326871      198.52227      0.0027363406 
  43110000   325.82975     -21.286406      43.381108      215.37078      0.0017608866 
  43120000   320.83063     -24.253262      31.905043      197.96248      0.0021742839 
  43130000   306.83662     -22.786912      41.289158      200.51196      0.002199382  
  43140000   282.77508     -27.260563      32.664231      173.14053      0.0023427965 
  43150000   278.64434     -20.442496      29.868785      174.71287      0.0029926286 
  43160000   279.14129     -24.010073      35.680175      177.25147     -0.0002280799 
  43170000   279.88733     -29.166356      44.754963      181.61251     -0.0012414234 
  43180000   301.51644     -24.684262      34.161049      188.33067      0.0026299058 
  43190000   293.39522     -25.500591      36.989562      185.5255       0.0023772761 
  43200000   300.65723     -30.10318       39.901017      188.14205      0.0011671619 
  43210000   283.84933     -27.075375      39.153483      180.45219      0.0035162912 
  43220000   286.21963     -24.614336      44.517814      189.68358     -0.0004655922 
  43230000   306.64919     -30.210211      36.207196      187.89552      0.0025404312 
  43240000   305.47209     -25.976594      38.508622      193.73233      0.002381997  
  43250000   270.92402     -24.920608      50.846389      186.63281     -0.00090617282
  43260000   301.16544     -17.402201      37.338103      198.58158      0.0012881822 
  43270000   307.22202     -17.95431       35.924399      200.20842      0.0010773296 
  43280000   316.29193     -22.491826      42.054904      207.18151      0.0018178605 
  43290000   293.79198     -15.139941      37.5086        196.64054      0.0026240906 
  43300000   309.16511     -12.670235      45.921124      216.64182      0.00068385628
  43310000   311.22858     -21.120328      40.141977      203.63659      0.00083649345
  43320000   298.73065     -23.841425      47.58486       200.94484     -0.0006992658 
  43330000   323.07484     -16.782917      39.532638      214.39164      0.0020372722 
  43340000   296.69757     -19.222205      38.073133      194.84635      0.0018534238 
  43350000   299.96496     -27.00309       41.729626      192.66011      0.0012049031 
  43360000   307.37072     -15.943558      46.615541      212.99852     -0.0007443756 
  43370000   298.91307     -12.370472      41.609785      206.54893      0.00022302694
  43380000   274.82012     -18.533584      33.934787      178.41933      0.00043218771
  43390000   319.34368     -20.696131      47.831682      216.56422      0.0016323007 
  43400000   337.54075     -13.768108      37.649741      224.10446      0.0018563828 
  43410000   294.48758     -15.225598      33.779121      193.23802      0.0012598277 
  43420000   310.85942     -12.043101      43.241993      215.59486      0.0016770364 
  43430000   280.45687     -14.514391      36.613477      188.46083      0.002044103  
  43440000   299.66682     -15.314626      33.618052      196.06015      0.0016797189 
  43450000   290.58383     -14.750572      39.166139      196.78443      0.0023254417 
  43460000   263.91137     -17.981049      32.849969      171.41618      0.0017650537 
  43470000   309.1505      -14.517127      31.323587      200.18873      0.0022273387 
  43480000   281.83797     -11.775703      39.425348      194.83063      0.00037306978
  43490000   282.02221     -8.0415377      34.668847      193.91758      0.0014241849 
  43500000   299.20954     -7.9114398      39.31515       208.88918      0.0025620459 
  43510000   309.25095     -5.0339852      34.686739      213.0946       0.0021369261 
  43520000   321.92911     -5.3165765      40.41193       226.05765      0.0016599309 
  43530000   309.57551     -5.7863649      35.177021      213.02503      0.003469329  
  43540000   279.50163     -5.611834       30.845772      191.02905      0.0025757163 
  43550000   259.42385     -8.030886       43.53676       189.39123      0.00013760385
  43560000   285.73147     -7.9295994      47.334556      208.89549      0.00043722618
  43570000   288.61195     -10.146777      36.060315      197.11272      0.0015181758 
  43580000   296.12237     -7.7905686      36.822267      204.68592      0.0011884298 
  43590000   314.8433      -8.3112733      39.747405      218.19526      0.0018117066 
  43600000   285.99763     -12.898887      40.247038      196.99657      0.00046536432
  43610000   308.62156     -15.525902      36.593354      204.13596      0.0013359263 
  43620000   275.95359     -18.740012      31.890256      176.84073      0.0016933175 
  43630000   267.93438     -17.855862      29.847273      170.92505      0.0021128392 
  43640000   282.28524     -22.458605      27.972193      172.95989      0.0017555216 
  43650000   284.56752     -23.853874      38.490591      183.43682      0.001798819  
  43660000   324.77621     -20.70477       37.769694      209.71607      0.00185971   
  43670000   302.90244     -27.564038      41.391133      193.50313      0.0009847227 
  43680000   291.44406     -20.096785      44.914638      197.69699      0.0013676048 
  43690000   284.86899     -20.960815      38.574337      186.59245      0.00078744851
  43700000   279.98419     -21.591535      34.854682      179.34451      0.0020214643 
  43710000   300.47904     -17.766516      33.52449       193.99649      0.0024556821 
  43720000   327.25423     -29.752754      34.090393      198.4587       0.0037067054 
  43730000   309.88527     -17.719577      36.176811      202.27535      0.0017872176 
  43740000   294.58794     -17.782573      38.042143      195.0036       0.0013183203 
  43750000   285.72706     -11.899691      37.203825      194.79205      0.001573423  
  43760000   305.61112     -12.87762       40.091428      208.49658     -0.00015503504
  43770000   289.62935     -19.929622      38.592173      190.46523      0.00076245898
  43780000   281.98086     -20.468179      39.823513      186.62108      0.001734203  
  43790000   292.34006     -17.495469      39.577579      195.49274      0.00044322211
  43800000   311.1344      -18.314158      34.422842      200.66776      0.0021871968 
  43810000   301.43946     -16.806818      37.920684      199.92209      0.00099928941
  43820000   321.4427      -4.6369053      45.807176      231.84404      0.00051284517
  43830000   298.68253     -13.168779      30.296177      194.30026      0.0028692106 
  43840000   289.7994      -23.663005      39.631495      187.87204      0.00040178553
  43850000   302.79454     -16.755661      37.677263      200.53363      0.0022003794 
  43860000   293.54168     -10.593247      39.763953      203.29411      0.0017697332 
  43870000   310.29491     -10.600332      36.961615      210.42239      0.0020723318 
  43880000   304.20701     -10.276701      46.805699      216.97888     -0.00098384472
  43890000   299.49907     -13.38819       41.471923      205.74095      0.0031471931 
  43900000   283.71499     -15.611536      36.505199      189.18806      0.00095113814
  43910000   294.64979     -17.49967       35.333825      192.61487      0.0021886747 
  43920000   287.14241     -25.541617      35.47648       180.26234      0.00080577387
  43930000   310.31411     -23.936102      40.243259      200.37966      0.0010365269 
  43940000   319.25869     -12.902004      38.686626      215.16287      0.00074778068
  43950000   289.65704     -14.022836      38.118715      195.91499      0.0018225668 
  43960000   280.85342     -15.345101      42.127747      193.37961      0.00096420004
  43970000   297.01568     -16.862204      40.951774      200.27369      7.1570458e-05
  43980000   314.15257     -13.868956      33.917954      206.39839      0.0012537702 
  43990000   310.53799     -10.703417      47.191851      220.69373     -0.00078556108
  44000000   279.47175     -7.2534483      39.989995      198.51394      0.00086502338
  44010000   273.78965     -1.5478992      38.247724      199.1067       0.0015321568 
  44020000   329.56672     -6.8684539      36.150403      224.77473      0.0027404197 
  44030000   283.6389      -10.617786      36.862939      194.49441      0.0021099198 
  44040000   307.92261     -5.9607377      35.85008       212.54325      0.0027262655 
  44050000   292.8515      -9.0837119      39.035008      203.6653       0.00069054588
  44060000   322.75731     -11.030317      32.599384      213.02264      0.0026934904 
  44070000   336.83759     -12.354016      36.413782      223.86549      0.0020584909 
  44080000   293.05346     -8.4275704      35.477511      200.88374      0.00072861544
  44090000   270.98297     -19.040562      32.291284      173.99273      0.0013284414 
  44100000   288.26104     -6.0723195      36.093892      201.0126       0.0027579183 
  44110000   278.54465     -7.3706275      45.249692      203.10651     -0.00085340541
  44120000   294.06037     -15.558312      33.764115      192.63689      0.0015949255 
  44130000   300.16589     -12.224371      59.862473      225.69086     -0.00074736997
  44140000   319.95013     -8.9967463      51.183228      231.97488     -0.00077416181
  44150000   284.54968     -10.859682      41.862724      199.79256     -0.00015813612
  44160000   298.58741     -7.7209565      40.462602      209.85808      0.0019810397 
  44170000   316.97789     -7.2735741      38.941959      219.69371      0.0011406607 
  44180000   317.11735     -8.4189758      38.914645      218.60372      0.0048444665 
  44190000   315.91775     -12.816605      34.515048      209.09491      0.00092592167
  44200000   308.77354     -12.290178      35.446932      206.31542      0.00090160352
  44210000   304.8997      -12.278346      35.852211      204.43464      0.0010075083 
  44220000   295.26214     -10.363975      29.996949      194.77693      0.0031535682 
  44230000   289.01713     -8.5012944      40.080833      203.01907      0.0010139779 
  44240000   315.54076     -17.309589      37.2865        207.14976      0.0019023501 
  44250000   325.21407     -14.527275      37.245393      215.62899      0.00078419224
  44260000   289.69655     -18.442138      40.781438      194.18185     -1.1407492e-05
  44270000   292.72256     -16.734198      36.837179      193.7405       0.0005079201 
  44280000   294.03349     -16.247609      30.381233      188.54876      0.002687123  
  44290000   300.56299     -14.76843       37.112746      200.63263      0.0017579937 
  44300000   256.82303     -14.978151      35.848531      173.21297      0.00034574821
  44310000   262.5919      -16.913831      34.93368       173.78443      0.00080172419
  44320000   335.04173     -13.659822      34.353195      219.43383      0.0040662646 
  44330000   289.4325      -17.991855      44.978162      198.67222      0.0015578986 
  44340000   306.41877     -16.881016      26.832046      191.71288      0.0024895634 
  44350000   295.43819     -17.653229      40.52646       198.12161      0.00089560613
  44360000   263.14123     -20.315364      34.861781      170.63685      0.00092621292
  44370000   281.17278     -19.503829      34.99563       182.27821      0.0015959232 
  44380000   325.4484      -14.406458      37.847896      216.49131      0.00092214413
  44390000   313.86401     -11.694817      43.33429       217.8177       0.00045130753
  44400000   328.50437     -23.886976      31.646194      202.62183      0.0033701737 
  44410000   286.57301     -14.102897      41.75141       197.63824      0.00087470178
  44420000   305.06031     -18.737228      41.665916      203.88473     -0.001126925  
  44430000   325.50878     -15.949299      47.460001      224.59639      0.0011034612 
  44440000   306.66067     -12.075448      30.735506      200.5654       0.0018094587 
  44450000   314.64719     -12.896742      39.103529      212.84959      0.0008364023 
  44460000   320.70001     -12.339259      40.468601      218.36256      0.0034163569 
  44470000   330.63165     -7.836166       35.043278      223.33159      0.0020652992 
  44480000   308.62107     -9.9262412      40.130086      213.27206      0.0008830706 
  44490000   289.24155     -12.576703      42.259087      201.25503     -0.00062990387
  44500000   302.27467     -12.12369       50.199506      217.37947     -0.0011759675 
  44510000   312.3224      -7.9974318      27.66319       204.92954      0.0030437055 
  44520000   290.39907     -9.2391911      35.135869      198.15595      0.0035881101 
  44530000   263.93175     -15.021943      33.13284       174.67025      0.002391523  
  44540000   301.75925     -11.192283      34.297661      202.10329      0.0020738409 
  44550000   288.09988     -7.0448048      36.176414      200.02704      0.001399454  
  44560000   297.99993     -2.9571226      35.686356      209.49719      0.0019883963 
  44570000   307.70425     -10.897379      42.393061      214.02006      0.0017802764 
  44580000   318.63276     -11.579172      43.253434      220.68122      0.00076130284
  44590000   328.81377     -16.047164      46.975996      225.97498      0.0021254187 
  44600000   313.91684     -9.240292       37.65936       214.62864      0.0010803324 
  44610000   316.45509     -7.6106151      46.639307      226.7439       0.00068273961
  44620000   309.03253     -6.6033746      44.315621      221.02453      0.00095104078
  44630000   269.4544      -10.980693      39.399457      188.25404     -0.00037881095
  44640000   314.84202     -9.6740102      35.371205      212.45556      0.0025171487 
  44650000   308.58001     -12.14564       45.749912      216.64813      0.0019606945 
  44660000   305.59131     -16.211814      30.980052      196.03926      0.0025114765 
  44670000   302.78046     -3.193546       29.257141      205.66727      0.0032998192 
  44680000   307.05299     -5.9999707      31.534521      207.67261      0.0034747081 
  44690000   314.14233     -5.1176756      44.788885      226.01454      0.00098376436
  44700000   321.81789     -9.6000942      39.448291      220.74452      0.0019219898 
  44710000   305.9528      -7.9116482      41.594227      215.16803      0.0025434827 
  44720000   313.1226      -11.03087       35.387512      210.09508      0.0022215531 
  44730000   310.35901     -5.6792225      42.602012      221.02192     -0.00024208716
  44740000   298.38047     -6.0106928      41.540564      212.52356      0.001748129  
  44750000   284.27715     -12.615615      37.782886      193.79513      0.0014796619 
  44760000   318.18481     -9.6080257      37.451843      216.58506      0.0034113848 
  44770000   299.86951     -7.2099472      47.590867      218.25788     -0.00022935037
  44780000   273.65418     -1.9957739      33.434792      193.76553      0.0015692194 
  44790000   286.78137     -6.1004297      28.33755       192.35044      0.0028987242 
  44800000   289.71923     -5.1307426      37.183983      203.90924      0.0010066998 
  44810000   301.10795      3.1998228      43.505989      225.31739      0.00065848451
  44820000   292.35519      8.6043634      33.236143      215.26011      0.0022834365 
  44830000   298.3872       9.9812851      36.975483      223.95444      0.0017392578 
  44840000   302.17938     -1.0242259      34.315576      212.53848      0.0012067322 
  44850000   278.27144     -3.126627       32.942521      194.88128      0.00047236524
  44860000   322.0422      -2.2015055      40.069119      228.89699      0.0016230795 
  44870000   291.14446      0.93938208     35.791654      209.43246      0.0033000893 
  44880000   276.75239      0.73613382     34.362377      199.26283      0.0010621311 
  44890000   297.74789      7.4917202      35.270048      219.38022      0.0022531495 
  44900000   280.74597      2.4687152      48.464208      217.46616      6.1886969e-05
  44910000   295.75173      4.6329515      33.169313      213.23663      0.0013540054 
  44920000   287.04649      2.9201108      39.876863      213.06755      0.0022248806 
  44930000   332.14989     -7.7372969      43.673067      232.96084      0.0023951947 
  44940000   306.63315     -2.1802052      35.126985      214.8358       0.0018319691 
  44950000   295.3522      -3.707984       39.454579      210.94397      0.00050894648
  44960000   286.8308      -4.9084849      30.366682      195.60084      0.0025936035 
  44970000   313.02537     -4.7150211      38.012971      218.97871      0.0014684938 
  44980000   305.52195     -4.137281       34.000049      211.09265      0.0027412146 
  44990000   310.5515      -11.0078        37.259774      210.46528      0.002252349  
  45000000   305.49522     -6.5656369      43.854224      218.50261      0.0017509055 
  45010000   271.51307     -7.5054864      45.278981      198.82995      0.001319544  
  45020000   305.96879     -5.2948086      32.669421      208.86955      0.001745669  
  45030000   325.67951     -6.6423023      35.27679       221.82145      0.0034271524 
  45040000   304.19891     -4.2809517      36.171518      212.33564      0.0011106028 
  45050000   272.05719     -7.5683096      35.247641      189.05854      0.00075655911
  45060000   299.90826     -5.6406852      41.933979      214.19324      0.0010893429 
  45070000   283.06728     -9.9555399      39.49657       197.45122      0.0012350926 
  45080000   313.21206     -6.3609427      38.14997       217.58053      0.0019032986 
  45090000   269.67345     -7.2526608      34.991498      187.70406      0.0014708161 
  45100000   292.14606     -7.182662       40.779961      206.89285      0.0013354457 
  45110000   337.24812     -8.1870165      29.37257       221.2348       0.0042030822 
  45120000   273.71886     -4.3849617      35.768596      193.74852      0.0021826346 
  45130000   298.35033     -4.2372414      32.488636      205.2272       0.0012360077 
  45140000   321.21123      0.49008221     33.930047      224.95659      0.0022042802 
  45150000   298.59251      0.017213208    41.421297      218.55797      0.0010522523 
  45160000   312.73376      3.362687       32.822757      221.69323      0.0034745258 
  45170000   287.77549     -2.6890292      33.545951      201.55993      0.003032658  
  45180000   297.95967     -2.6215812      28.322188      202.44468      0.0026936982 
  45190000   335.10555     -2.9151093      41.733281      237.59649      0.00084935908
  45200000   319.43517      1.4690904      38.754655      229.70668      0.0038940199 
  45210000   323.6577      -3.5661554      40.634878      229.05638      0.0022960675 
  45220000   271.51763     -0.064280151    40.480604      201.47548      1.5704852e-05
  45230000   318.71463      3.1198503      36.281363      228.45674      0.0030245026 
  45240000   325.99264      3.5471197      40.727565      237.64739      0.0020320819 
  45250000   302.7266      -2.0336722      35.257568      212.79562      0.0026263518 
  45260000   293.98538     -1.5224518      31.08545       203.9496       0.002206198  
  45270000   318.32495     -2.7699217      32.367118      218.42157      0.0028326957 
  45280000   312.00107      1.1115186      36.568718      222.75341      0.0020902755 
  45290000   286.12842      9.2783778      31.898066      210.90244      0.0020285369 
  45300000   280.85294     -2.5736737      31.590088      195.6131       0.003124876  
  45310000   268.75818     -0.092757433    38.821667      198.15121      0.00019100064
  45320000   297.2388       3.6624466      40.122884      220.1018       0.0015467409 
  45330000   287.97159      2.1738512      35.54776       208.54095      0.00055310007
  45340000   282.49823     -0.39078515     41.145557      208.32741      0.00053485805
  45350000   299.08511     -4.6400707      33.281303      206.0529       0.0029663018 
  45360000   303.83773     -11.985221      46.151059      214.39667     -0.0010011245 
  45370000   297.32304     -15.395086      40.152179      201.12353      0.0018990333 
  45380000   304.93312     -9.9632214      33.602815      204.52019      0.0036863973 
  45390000   292.6589      -9.5851251      28.01515       192.02978      0.0033630586 
  45400000   280.27582     -6.9187779      34.775044      194.11061      0.0023755413 
  45410000   294.807       -10.657453      31.057261      195.27378      0.0030265663 
  45420000   297.019       -6.3282496      38.01179       207.86963      0.00072642937
  45430000   309.40218     -5.1496278      39.559822      217.94175      0.0012830545 
  45440000   299.08711     -7.7257247      37.159312      206.84644      0.0030019863 
  45450000   292.06939     -5.7466113      37.221857      204.72532      0.001532478  
  45460000   298.95793     -3.3973192      36.732493      210.6714       0.0019824683 
  45470000   305.8743      -8.369929       37.648596      210.71755      0.0021591259 
  45480000   284.29519     -5.9074616      40.442649      203.17375      0.0017322176 
  45490000   311.64062     -9.2947904      36.125314      211.68988      0.002696956  
  45500000   293.11822     -3.7757247      37.780143      207.87663      0.0020784517 
  45510000   292.1227      -3.0938469      30.459848      200.64769      0.0023823901 
  45520000   313.25827      6.4048661      39.292496      231.51628      0.0021669502 
  45530000   304.58325      6.5932742      41.659255      228.92558      0.0029809701 
  45540000   296.78132      2.8034969      45.386097      224.23469      0.0022459705 
  45550000   292.3999       0.89449057     39.740693      214.08131      0.0013906441 
  45560000   301.70672     -1.5376262      35.028895      212.45802      0.0022002868 
  45570000   313.1848      -8.5601861      40.187094      217.40225      0.0014831729 
  45580000   311.35626     -6.706132       40.416122      218.40067      0.0006185266 
  45590000   277.33487     -8.2493781      28.089183      184.34963      0.0032432947 
  45600000   305.00337     -8.249683       35.798992      208.47157      0.0028793503 
  45610000   277.59054     -7.0721243      35.454192      193.04356      0.00084119656
  45620000   311.71994     -12.790189      32.567687      204.68391      0.0023004808 
  45630000   311.41891     -10.217122      49.871483      224.3822      -0.00039147898
  45640000   295.79574     -8.892128       41.050134      207.61848      0.00085198583
  45650000   296.26413     -12.003407      39.425715      203.16062      0.0011899331 
  45660000   289.66765     -6.5401835      31.245988      196.53121      0.0030108555 
  45670000   270.44704     -16.304276      30.979121      175.09895      0.0012989205 
  45680000   290.67517     -13.992877      31.904114      190.33428      0.0020105588 
  45690000   312.47811     -11.328036      39.943019      213.97113      0.0011893497 
  45700000   321.48958     -1.907992       41.717684      230.51127      0.0028228107 
  45710000   279.91085     -8.4181971      34.058749      191.67841      0.002829494  
  45720000   314.14103     -9.6265954      30.579932      207.29589      0.0032474997 
  45730000   293.17023     -10.025762      38.880768      202.75807      0.00034484834
  45740000   318.48921     -3.1214215      42.061715      227.8621       0.0014280404 
  45750000   299.24433     -2.3167311      37.487872      212.67725      0.0011544731 
  45760000   294.41713     -4.5737273      44.179809      214.24879      0.0003161532 
  45770000   282.70425     -10.426047      39.330339      196.59914      0.0015013553 
  45780000   311.69992     -5.8997372      32.197375      211.19217      0.0029585518 
  45790000   321.93843     -15.450277      30.935446      206.45299      0.0037646004 
  45800000   296.05096     -7.7111505      44.740231      212.64094     -2.6685189e-05
  45810000   292.57959     -4.6080423      31.284697      200.22936      0.0033345899 
  45820000   273.34902     -12.446016      31.240662      180.94014      0.0017623557 
  45830000   303.80983     -7.1108222      30.291838      203.39529      0.0053072856 
  45840000   328.35805     -8.5221511      42.972017      229.22569      0.00028916976
  45850000   295.52204     -7.8431448      30.634689      198.08966      0.0029359095 
  45860000   320.21012     -7.5838401      40.789914      223.14869      0.0013419282 
  45870000   315.21869     -15.351529      47.751714      219.38199     -6.601555e-06 
  45880000   331.38597     -5.2527179      32.279884      223.59909      0.0040271743 
  45890000   306.52509     -11.689738      33.469673      203.60485      0.0021817647 
  45900000   294.9609      -19.29436       36.980808      192.65171      0.00063328675
  45910000   301.21589     -17.581966      43.153643      204.24728      0.00051542166
  45920000   305.75953     -18.790105      45.055077      207.63578      0.0013523767 
  45930000   293.13449     -14.74727       36.014489      195.14909      0.0014312873 
  45940000   292.65433     -20.870258      33.687332      186.41412      0.0024874086 
  45950000   287.52103     -17.270571      41.939424      195.22092      0.00013622625
  45960000   295.80399     -15.193281      37.223101      197.49519      0.0016156931 
  45970000   298.42721     -10.950436      40.163804      206.23478      0.0016134849 
  45980000   333.69841     -6.7569483      31.105161      222.29184      0.0033214365 
  45990000   278.61563     -6.5402333      40.523561      199.25288      0.0029767009 
  46000000   308.91052      0.1289613      47.959803      231.32868      0.00049092806
  46010000   283.34149     -5.0439301      43.665033      206.69395     -0.00012250536
  46020000   285.87126     -5.2826586      42.535697      206.82649      0.0011152519 
  46030000   309.23604      2.6066149      41.7127        227.75232      0.001428201  
  46040000   321.99997     -3.7772154      39.865106      227.09222      0.00086154316
  46050000   307.84928     -4.0550274      35.944889      214.50027      0.002303003  
  46060000   277.48282     -1.6531153      35.704984      198.64946      0.0021464479 
  46070000   274.14192     -3.4746383      36.030474      195.17167      0.0016784886 
  46080000   281.94567     -9.477962       34.980792      192.7477       0.0027077501 
  46090000   330.58158     -10.369553      33.30826       219.03348      0.003399194  
  46100000   320.76831     -6.6462176      35.383049      219.01056      0.0026311221 
  46110000   262.36944     -15.228016      30.386543      170.79115      0.00042043076
  46120000   294.41774     -20.863246      41.289675      195.06949      0.0010204359 
  46130000   298.78068     -11.337121      31.175667      197.06963      0.0030476604 
  46140000   280.02211     -13.436723      38.145009      190.81214      0.0006225444 
  46150000   269.93602     -16.324621      35.869169      179.66552      0.0015982713 
  46160000   287.61251     -11.78464       34.736493      193.55819      0.0015347922 
  46170000   285.26198     -7.5185429      45.097146      206.79065      0.0011794142 
  46180000   322.50913     -19.328754      40.122108      212.09971      0.0033639314 
  46190000   312.97215     -12.391239      34.362333      207.62029      0.003575632  
  46200000   279.35089     -11.502521      38.143629      192.3468       0.0020576402 
  46210000   318.66189     -10.898926      40.5896        218.71491      0.00028179066
  46220000   313.35694     -13.09571       33.46017       206.24191      0.002463843  
  46230000   266.81659     -10.660662      35.506564      183.11649     -0.00058048137
  46240000   324.48021     -15.581567      36.05          212.94399      0.0034799786 
  46250000   307.95965     -6.6929115      35.85595       211.83891      0.0034014719 
  46260000   283.81837     -4.405685       27.757038      191.70707      0.0028771167 
  46270000   313.0798      -2.820391       39.50715       222.39981      0.0030430755 
  46280000   314.22379     -0.64925182     36.680206      222.4226       0.0015155404 
  46290000   296.66777     -15.241104      38.405332      199.14197      0.00053005447
  46300000   317.25302     -4.4689561      39.8956        223.61517      0.0012890715 
  46310000   288.70153     -12.130468      36.771892      195.89374      0.002423485  
  46320000   289.30678     -7.1268735      35.580334      200.06481      0.0013143815 
  46330000   332.95455     -6.7624234      40.798657      231.53861      0.003133632  
  46340000   308.16816     -5.1424848      36.338059      213.99514      0.0019829171 
  46350000   296.51694     -11.849531      36.618064      200.65681      0.004296427  
  46360000   311.69248     -14.172654      30.975564      201.69303      0.0036988755 
  46370000   297.88731     -11.814964      27.437359      192.32355      0.0040538825 
  46380000   319.79191     -5.7980575      34.865341      218.76183      0.0032653989 
  46390000   276.03234     -10.81381       33.889536      186.81292      0.001316754  
  46400000   293.50716     -7.4812177      38.265298      204.88701      0.0024025467 
  46410000   286.29291     -7.0151695      34.693983      197.50239      0.0035791463 
  46420000   265.49011     -12.95948       36.379796      180.90406     -0.00077602889
  46430000   312.9924      -11.263474      37.738173      212.13591      0.0031326761 
  46440000   293.68372     -6.3147446      37.668232      205.56115      0.0025437313 
  46450000   292.66241     -12.627244      29.185482      190.16008      0.0039226475 
  46460000   293.94515     -14.133413      41.903888      202.13321      0.0015096412 
  46470000   281.96208     -8.7334797      41.084039      199.60516      0.0019480847 
  46480000   308.83482     -10.650615      39.310805      211.8552       0.002193112  
  46490000   294.26935     -5.3255594      38.127265      207.35675      0.0019731526 
  46500000   281.49808     -8.9248095      31.840078      189.89464      0.0021423163 
  46510000   280.82217     -11.49437       39.158749      194.24281      0.0014837109 
  46520000   302.1777      -13.745157      36.700901      202.20187      0.0016664006 
  46530000   303.87879     -12.617357      37.540337      205.17817      0.0015872793 
  46540000   275.79893     -6.5623243      32.804576      189.84099      0.0021448437 
  46550000   301.02675     -3.7669585      36.492592      211.28904      0.0016857367 
  46560000   276.55854     -2.1662215      38.293923      200.17703      0.00152566   
  46570000   291.40102     -3.4069627      29.56289       199.00953      0.0032578586 
  46580000   280.53327     -5.9152822      34.80562       195.2974       0.0016322607 
  46590000   273.11869     -4.0291329      29.739528      187.71927      0.0025806369 
  46600000   281.02331     -7.2591219      45.125447      204.56407      0.00056664088
  46610000   306.02298     -9.07091        35.934321      208.39049      0.0018184483 
  46620000   312.78262     -4.7457919      38.667905      219.45888      0.001862175  
  46630000   318.94672     -4.2125852      38.958561      223.93917      0.0024863569 
  46640000   306.06666     -2.5640561      29.068308      208.05724      0.0035814178 
  46650000   304.44954     -7.8793261      44.001184      216.7156       0.0015192148 
  46660000   279.74913     -8.8315238      37.573655      194.68405      0.0028982687 
  46670000   294.73059     -15.017176      31.499057      191.31052      0.0029066563 
  46680000   297.14233     -13.609457      35.723388      198.37317      0.0014334339 
  46690000   256.51531     -10.177876      33.939963      175.92215      0.00084988084
  46700000   291.1601      -10.470417      35.832961      198.07324      0.0022554964 
  46710000   276.01001     -3.1183214      39.173062      199.77869      0.00089927765
  46720000   298.85537     -1.2935633      39.065453      215.04728      0.001020136  
  46730000   317.05666      3.4430056      36.898223      228.41328      0.003705114  
  46740000   316.30512      8.2151495      33.90604       229.74744      0.0037582771 
  46750000   300.11092      3.8937172      41.522914      223.43679      0.0023636027 
  46760000   290.85117     -3.7917023      46.642571      215.37831      0.00086903817
  46770000   274.86318     -0.28151588     47.562389      210.32455      0.00086325814
  46780000   298.493       -0.30267501     35.128433      211.8862       0.0035869455 
  46790000   321.52187      3.3972685      29.392012      223.51001      0.0049447933 
  46800000   306.04431     -5.1669515      37.187598      213.56038      0.0021490344 
  46810000   271.48091     -1.6345401      26.352425      185.75526      0.00400717   
  46820000   289.20592     -6.917708       33.82026       198.45407      0.0031783955 
  46830000   321.28172     -1.264018       35.393232      224.70749      0.0023792774 
  46840000   279.02251     -7.6813298      35.962068      193.79164      0.0018232748 
  46850000   309.46483     -3.9700211      35.679709      215.27841      0.0021604183 
  46860000   308.11154     -4.1885917      33.017834      211.59522      0.0027485273 
  46870000   304.03038     -9.6137936      39.059676      209.79099      0.0014095654 
  46880000   300.97312     -7.89943        41.819915      212.45208      0.001299872  
  46890000   295.45821     -7.7017148      28.626226      196.18477      0.003163706  
  46900000   304.17528     -5.1551651      30.711866      205.98776      0.0026593001 
  46910000   302.62571     -6.2529124      31.844046      205.10302      0.0022080545 
  46920000   320.63366     -9.4199214      41.844649      222.61859      0.0030664283 
  46930000   286.56366     -0.10570391     33.061365      202.93984      0.0026147328 
  46940000   291.98189      1.2718056      31.090954      205.56093      0.0030249289 
  46950000   280.09845     -3.5528365      26.684954      189.28125      0.0037604566 
  46960000   310.56993     -2.9724984      38.068038      219.31978      0.0033374413 
  46970000   315.69802     -8.2600344      28.914751      207.92085      0.0037885165 
  46980000   304.30071     -11.059982      41.814406      211.25989      0.00099088195
  46990000   293.88004     -6.4853926      25.884999      193.72372      0.0038792613 
  47000000   277.87708      3.1854053      34.52809       202.54496      0.0023646056 
  47010000   268.20073     -1.0496629      28.700931      186.7429       0.0036667932 
  47020000   315.51944     -4.0630339      27.336201      210.43337      0.0039620497 
  47030000   313.62533     -8.744087       42.048987      219.34155      0.0028921449 
  47040000   289.94349     -11.865958      31.661942      191.78501      0.0022697504 
  47050000   311.62525     -5.8211685      35.700852      214.72993      0.0034656766 
  47060000   314.14226      0.20157427     36.800939      223.34579      0.0017041816 
  47070000   325.0405      -3.4686924      32.066371      221.40559      0.0046831453 
  47080000   294.60847     -5.2388083      39.643878      209.16127      0.0029831933 
  47090000   286.68329     -3.1031727      36.047307      202.99927      0.0017092396 
  47100000   293.97146     -5.6191389      40.612548      209.37175      0.0045407647 
  47110000   304.19021     -8.4847036      36.745297      208.70051      0.0034344944 
  47120000   274.81708     -10.072149      25.089578      178.03376      0.0030849648 
  47130000   316.99554     -7.848333       35.150708      215.33817      0.0031294688 
  47140000   301.3884      -9.4874091      41.798104      211.08863      0.0018552052 
  47150000   298.19196     -3.6870238      31.873801      205.06864      0.0034936102 
  47160000   324.45964     -4.4958424      32.750867      220.71838      0.0038366517 
  47170000   303.722       -5.272814       29.124492      204.01386      0.0050649496 
  47180000   282.98998     -4.8497862      51.536364      214.55092      0.0003441821 
  47190000   298.16434      1.3002971      33.803944      211.96972      0.0031981521 
  47200000   313.27206     -0.39432581     39.876541      225.30931      0.0027049937 
  47210000   310.70968     -3.7935897      27.506351      208.0199       0.0033928212 
  47220000   303.68393     -2.2981973      39.050814      216.89222      0.0028112404 
  47230000   324.22886     -3.8419518      38.557344      227.04185      0.0032343634 
  47240000   336.59804     -9.245979       35.466615      225.88426      0.0043756828 
  47250000   333.98346     -2.128193       43.336207      239.32072      0.003318265  
  47260000   300.07589     -3.4967592      28.979809      203.48243      0.0021588693 
  47270000   309.22891     -6.6798937      30.218823      206.9677       0.0037591799 
  47280000   294.3617      -7.6639625      45.043297      211.98916      0.00052165586
  47290000   300.28027     -15.19519       44.02834       206.95376      0.00016086003
  47300000   321.45592     -17.507994      35.095909      208.26952      0.0021709027 
  47310000   293.50619     -21.177594      34.184963      187.10972      0.0027849994 
  47320000   311.49707     -20.000758      35.273587      200.04704      0.0018211766 
  47330000   294.44644     -11.097668      41.797544      205.35997      0.0011615616 
  47340000   322.33507     -17.141297      28.882077      202.94388      0.0049511222 
  47350000   288.6377      -14.530551      35.162116      191.84602      0.0011351513 
  47360000   293.30288     -10.615886      38.11717       201.48304      0.0011540313 
  47370000   290.75022     -7.6790874      37.315475      202.10395      0.0029714828 
  47380000   319.68218     -6.4678469      27.635679      210.79729      0.002670588  
  47390000   284.65494     -1.70956        42.603242      209.74564      0.00047928895
  47400000   291.81872     -14.120685      34.514085      193.49478      0.0012694846 
  47410000   311.73947     -17.500739      37.599879      205.01713      0.0028968561 
  47420000   291.60078     -17.26679       48.090309      203.79562     -0.00083079872
  47430000   333.71978     -20.816732      31.781349      208.92092      0.0033561889 
  47440000   335.7384      -17.354335      38.801115      220.60048      0.0021032852 
  47450000   311.58721     -19.43373       30.177187      195.57113      0.0041971285 
  47460000   351.77282     -7.6441795      28.216798      229.23764      0.0052812532 
  47470000   277.80044     -7.3164212      32.396056      189.86563      0.0026635019 
  47480000   294.02035     -12.006833      30.989364      193.38988      0.0018383184 
  47490000   296.56041     -8.2374444      35.059738      202.73636      0.0030546136 
  47500000   329.29689     -15.302136      37.07186       217.10245      0.0035916249 
  47510000   303.68059     -14.59361       41.474684      207.01869      0.0025814383 
  47520000   289.53331     -10.087732      33.24053       194.89852      0.0027118854 
  47530000   357.33429     -10.848211      40.552088      241.66786      0.0037968781 
  47540000   283.32073     -11.265391      35.507605      192.30274      0.0012401359 
  47550000   314.56779     -9.4597148      36.316778      213.45276      0.0010318053 
  47560000   336.09431     -14.573925      34.020958      218.81186      0.0038698954 
  47570000   303.77791     -15.751419      30.045198      194.48913      0.0044109829 
  47580000   296.84694     -14.326202      37.046969      198.80479      0.0021502669 
  47590000   307.94978     -20.151032      39.597089      202.11608      0.0022036801 
  47600000   324.1452      -22.246226      31.564889      201.5955       0.0042135973 
  47610000   271.64791     -15.10622       24.097461      170.12767      0.0027802401 
  47620000   316.51616     -16.780109      31.441722      202.41305      0.0040692107 
  47630000   280.39364     -14.198545      34.145061      186.27075      0.0025206766 
  47640000   282.2796      -16.186878      31.686423      182.9425       0.0027399193 
  47650000   288.09316     -11.327047      35.704688      195.26909      0.0019082398 
  47660000   287.89579     -19.126868      36.743647      188.39115      0.0022569474 
  47670000   293.87824     -12.570508      36.30838       198.06092      0.0022730655 
  47680000   308.75175     -10.073931      36.141959      209.21376      0.0039072856 
  47690000   313.63081     -15.12013       38.482083      209.40185      0.0015389209 
  47700000   292.92848     -12.568671      36.471014      197.66201      0.0020376169 
  47710000   315.11656     -8.048491       37.406833      216.27956      0.0023789478 
  47720000   286.87556     -1.5942159      32.457573      201.03255      0.0027001252 
  47730000   269.97016     -3.4451515      37.699997      194.39607      0.0033428006 
  47740000   270.55675     -10.177271      42.227685      192.53959     -0.0005510253 
  47750000   293.0762      -8.7058202      32.95526       198.09673      0.0052259534 
  47760000   279.20549     -13.148094      43.28186       195.75321      0.0019397091 
  47770000   315.31046     -8.6353916      34.512908      212.91375      0.0024191922 
  47780000   283.37711     -7.8382624      40.153363      200.40907      0.0006869117 
  47790000   317.72535     -9.6329076      32.639928      211.47572      0.0036340373 
  47800000   276.71264     -5.4086769      42.141115      200.87318      0.0015129041 
  47810000   310.65239     -7.4029148      32.269582      209.13983      0.0031773279 
  47820000   281.20496     -4.4422662      40.14318       202.50641      0.0014518654 
  47830000   311.31636     -5.4450064      34.337162      213.55917      0.0047062912 
  47840000   308.64161     -7.9949111      42.695578      217.78107      0.0023531119 
  47850000   299.42343     -5.236183       36.053543      208.42971      0.0033856098 
  47860000   310.08459     -5.3368822      47.551203      226.15067      0.00039317667
  47870000   306.07651     -10.791158      43.326798      214.09447      0.0023831366 
  47880000   310.90839     -6.8784566      33.324796      210.87135      0.002486747  
  47890000   303.92232     -4.6677878      31.326548      206.93977      0.0036754465 
  47900000   331.85067     -3.3798615      34.984136      228.45185      0.0034650594 
  47910000   308.23836     -6.7888772      28.175971      204.22829      0.0026572488 
  47920000   283.16172     -0.69233497     36.655852      203.92972      0.0033334079 
  47930000   268.80622     -4.5794821      44.284416      199.15573      0.00077691451
  47940000   275.68896      0.067149004    34.17729       197.77795      0.0026317021 
  47950000   306.28023     -3.6726198      34.512012      212.51907      0.0026469918 
  47960000   285.99722     -6.9381735      46.042468      208.75247      0.0016630338 
  47970000   308.92849     -4.4350217      31.279952      210.0955       0.0018838431 
  47980000   291.36516     -16.787672      31.558705      187.60336      0.002759185  
  47990000   309.8477      -7.2110032      27.205105      203.78993      0.0037535853 
  48000000   317.4677      -17.145128      35.626791      206.79753      0.0026105239 
  48010000   279.49614     -14.943779      39.069526      189.91761      0.00033993057
  48020000   328.04033     -16.012588      35.3804        213.95517      0.0033691078 
  48030000   285.23074     -21.555328      33.777148      181.41533      0.0023935538 
  48040000   332.40185     -12.677596      26.417082      210.91401      0.0049134769 
  48050000   293.76073     -19.286805      34.847296      189.81383      0.0016202639 
  48060000   319.03932     -15.705446      51.349013      224.89169      0.0012123155 
  48070000   266.79601     -19.010803      45.291128      184.5387       0.00081140714
  48080000   288.21399     -26.595025      32.996104      177.3642       0.0026998933 
  48090000   350.12692     -24.442806      40.1982        223.4441       0.0025346563 
  48100000   317.67029     -28.313095      41.474096      201.59704      0.00096589319
  48110000   302.74303     -28.579738      35.524667      186.5264       0.0022456023 
  48120000   313.39576     -22.895868      36.318747      199.32335      0.0023968507 
  48130000   304.54949     -13.912573      40.013977      206.75444      0.0029368069 
  48140000   288.95976     -14.711592      29.266235      185.96014      0.0023635081 
  48150000   320.26461     -25.515257      29.470044      193.92973      0.0028551661 
  48160000   312.37363     -22.058268      39.071544      202.30744      0.0015716372 
  48170000   285.49046     -18.051178      37.242709      188.5391       0.0024264481 
  48180000   321.31047     -17.250775      30.303912      203.64847      0.003590139  
  48190000   289.1233      -21.108958      37.399539      187.79309      0.001137356  
  48200000   279.24342     -22.182899      36.796335      180.25538      0.00028817348
  48210000   322.01581     -25.144845      31.999415      197.86829      0.0025210023 
  48220000   283.48384     -23.045328      26.055193      171.16715      0.0030627748 
  48230000   307.84596     -21.327635      34.340777      195.62158      0.0030915941 
  48240000   306.37473     -18.264809      31.447948      194.91887      0.0027026621 
  48250000   304.93389     -26.606183      39.109539      193.38441      0.0021811458 
  48260000   295.99366     -22.605203      41.136902      194.10958      0.0023965915 
  48270000   321.02654     -23.111378      42.949268      210.2648      -7.3957526e-05
  48280000   307.97717     -23.24406       35.207459      194.64967      0.0033099569 
  48290000   285.4857      -26.344473      36.944524      179.9448       0.0011539423 
  48300000   292.12326     -27.629254      34.767733      180.42051      0.0016787858 
  48310000   275.21274     -27.008531      30.367722      166.61021      0.0011742631 
  48320000   269.0643      -22.466184      32.024712      169.16241      0.0017342005 
  48330000   296.24744     -17.143123      41.536739      200.12203     -0.00028427361
  48340000   296.2046      -19.322928      34.469093      190.84917      0.0022566718 
  48350000   278.65132     -23.466446      29.08323       170.90751      0.00093557878
  48360000   286.9582      -18.61559       40.350794      191.95341      0.0024965795 
  48370000   310.14582     -23.032339      33.106496      194.04683      0.0019611094 
  48380000   322.17875     -25.050091      37.884763      203.94505      0.0019643457 
  48390000   267.49531     -25.395984      32.734799      166.012        0.0010304961 
  48400000   305.24748     -30.258084      28.774804      179.58379      0.0021795941 
  48410000   264.94628     -23.177139      34.294996      168.27901      0.00029324228
  48420000   323.5763      -19.194265      28.426215      201.17133      0.0024910219 
  48430000   297.45926     -18.508223      34.323735      192.26275      0.0016801797 
  48440000   294.99422     -20.176362      46.896673      201.70534     -0.00042467213
  48450000   285.24222     -18.69199       35.429978      185.93831      0.0018300277 
  48460000   300.30513     -19.896387      31.695538      189.93451      0.0035647668 
  48470000   295.38345     -18.355237      36.741975      193.60265      0.0017616129 
  48480000   296.16889     -14.831496      33.105343      193.95566      0.0010223644 
  48490000   275.81136     -11.825435      34.167876      185.94856      0.0031298391 
  48500000   300.83626     -12.261218      39.908022      206.09722      0.0017782621 
  48510000   298.33775     -9.0907375      33.24194       201.11955      0.0020467133 
  48520000   296.55528     -9.7890129      38.386146      204.50815      0.0011825641 
  48530000   298.88651     -21.358377      34.115349      190.05083      0.0033478091 
  48540000   296.61487     -20.653502      43.014491      198.30735      0.00080799946
  48550000   266.87498     -16.724351      36.598897      178.17977      0.00086234238
  48560000   284.6772      -18.723311      43.035305      193.17715      0.0013558865 
  48570000   330.01619     -13.617702      44.349386      226.49108      0.0011107438 
  48580000   289.6168      -6.5150156      36.502624      201.78285      0.0012984897 
  48590000   296.12516     -13.09008       41.522724      204.08852      0.0012058557 
  48600000   307.6798      -10.589004      35.661875      207.58274      0.00079350949
  48610000   279.88328     -16.276643      39.699936      189.44479      0.0013929082 
  48620000   272.28297     -17.839279      33.286408      176.96027      0.00085965957
  48630000   303.0484      -17.508705      37.346777      199.60068      0.0016795768 
  48640000   287.67719     -7.603474       36.874928      199.91615      0.0028045454 
  48650000   314.70151     -14.319076      39.12996       211.4859       0.0013375381 
  48660000   313.87772     -12.353263      32.369191      206.20229      0.0038421458 
  48670000   295.79013     -14.140033      33.978405      195.29552      0.002843918  
  48680000   303.55276     -16.036839      39.404532      203.42948      0.0016065094 
  48690000   277.15561     -15.04016       40.176787      189.54012      0.0013617168 
  48700000   316.9706      -10.209783      37.701273      215.51249      0.0021210894 
  48710000   288.02746     -13.773508      29.527379      186.60635      0.002410996  
  48720000   263.09926     -10.369718      35.443499      181.13931      0.0022025916 
  48730000   274.67892     -15.820927      33.718108      180.83155      0.0029628835 
  48740000   319.63753     -16.898949      27.480447      200.18447      0.0036967764 
  48750000   317.8877      -15.564717      40.262849      213.26314      0.0017085495 
  48760000   297.56581     -17.276412      29.771351      189.00538      0.00192901   
  48770000   300.89925     -15.430579      35.699728      198.75693      0.00170388   
  48780000   315.30289     -9.8759243      31.353406      208.50923      0.0040483193 
  48790000   297.09157     -13.858636      34.850301      197.2208       0.0019380936 
  48800000   320.90415     -9.7784876      30.797051      211.37287      0.0027262819 
  48810000   286.11399     -8.1791002      33.209168      194.74751      0.0029548419 
  48820000   290.41511     -3.5024501      38.322509      207.08884      0.0022971572 
  48830000   309.9451      -5.7259748      35.732225      213.85985      0.0016949052 
  48840000   303.02966     -9.5133237      29.727364      199.96554      0.0033362411 
  48850000   276.13466     -1.4220562      28.208967      190.5848       0.003198468  
  48860000   316.60828     -3.6018936      32.934672      217.13886      0.0026565801 
  48870000   302.64596     -10.972732      43.145317      211.69648     -0.00012488641
  48880000   309.65964     -12.328941      29.021219      200.37656      0.0035059825 
  48890000   287.92966     -10.925501      32.416292      192.28525      0.002783056  
  48900000   311.36875     -3.7538501      35.417327      216.36157      0.0013200239 
  48910000   279.14758     -9.2638734      36.781338      193.10256      0.0023244304 
  48920000   339.89204     -1.8640215      38.008989      237.76254      0.0046902136 
  48930000   276.05274     -0.9109451      40.781158      203.61951      0.0011096283 
  48940000   304.90469     -2.094686       45.284809      224.05385      0.0011694766 
  48950000   310.18354     -7.7513675      32.20776       208.45143      0.0022360605 
  48960000   330.95585     -4.7015544      27.717062      219.3323       0.0028804356 
  48970000   304.11506     -2.4567671      36.90262       214.84119      0.0024458443 
  48980000   276.47174      1.5859204      31.583363      197.16712      0.001320833  
  48990000   316.55227     -3.508354       40.194036      224.45853      0.0024564646 
  49000000   302.94683     -12.041926      30.359081      198.01952      0.0026580499 
  49010000   302.22421     -15.434741      33.411461      197.25044      0.0017851522 
  49020000   312.42905     -8.1408707      41.972908      219.15908      0.0011163486 
  49030000   270.91492     -14.063183      35.890234      182.52869      0.0011421029 
  49040000   296.12823     -15.229113      33.666754      194.09534      0.00092551832
  49050000   329.57752     -19.311038      32.029329      208.21748      0.0034087543 
  49060000   294.25984     -13.470201      36.365267      197.44447      0.0012924829 
  49070000   295.84015     -17.307518      36.809784      194.98908      0.0015840426 
  49080000   307.16285     -10.727445      37.422417      208.8982       0.0036746377 
  49090000   288.92726     -20.727527      28.334581      178.99327      0.0027217988 
  49100000   309.44941     -14.645301      34.989945      203.90422      0.0031473725 
  49110000   343.47273     -17.662796      31.515484      217.59425      0.0049919426 
  49120000   331.13396     -10.644628      35.483842      221.26166      0.0038398881 
  49130000   267.3313      -9.3402601      35.753846      184.98949      0.0016291891 
  49140000   303.17472     -9.6268124      28.746524      198.95726      0.0037071153 
  49150000   319.10373     -9.8103725      33.04227       212.51823      0.0019880037 
  49160000   306.23852     -8.9239679      34.584529      207.31549      0.0016173159 
  49170000   267.57712     -8.5367523      40.391197      190.57616      0.00036583585
  49180000   284.30169     -5.9641883      36.255084      198.93331      0.0012873625 
  49190000   294.81599     -2.9284382      42.062659      214.01352      0.0021658494 
  49200000   287.17148      3.9814242      35.259729      209.58588      0.0017794868 
  49210000   282.18204     -2.0621296      34.901855      200.22481      0.0025915553 
  49220000   299.63151     -4.7302264      31.059432      204.06498      0.0028340242 
  49230000   298.01266     -7.9187242      38.429413      207.2862       0.0022280365 
  49240000   312.18412     -8.7926774      29.200455      205.58953      0.0042348874 
  49250000   305.28571     -7.8662321      36.526572      209.75008      0.0014385803 
  49260000   306.7095      -6.372766       35.068873      210.63042      0.0028179236 
  49270000   300.74883     -4.652515       34.026211      207.77225      0.0033926081 
  49280000   321.08539     -6.5665239      34.793131      218.68842      0.0033145522 
  49290000   284.06314     -11.615055      31.834251      188.72011      0.001663005  
  49300000   295.83848     -8.1782933      39.363181      206.67071      0.0013576938 
  49310000   285.09802     -15.790949      29.664694      182.98853      0.0035087012 
  49320000   311.01259     -11.293843      35.728653      208.92163      0.001515608  
  49330000   278.16765     -10.204265      40.058455      194.85801      0.0023318303 
  49340000   302.67577     -9.730525       40.644331      210.45538      0.0022529289 
  49350000   304.76216     -8.6540339      30.192359      202.31751      0.0025991807 
  49360000   311.97326     -5.9427069      29.517765      208.63173      0.0041105755 
  49370000   303.81458     -15.908287      31.734613      196.04342      0.0040691889 
  49380000   305.41411     -9.6403012      31.839892      203.3655       0.0024587016 
  49390000   290.46194     -7.5444545      27.90448       192.65659      0.0042037825 
  49400000   282.50798     -3.4238903      39.608534      203.76306      0.0015938003 
  49410000   323.5943      -7.4858407      34.276499      218.74071      0.0035313339 
  49420000   284.26676      4.9031753      36.446841      209.97171      0.0017961835 
  49430000   303.56184     -1.2191117      32.248307      211.09637      0.0017733889 
  49440000   299.32053     -2.0118009      38.388488      213.928        0.0027976023 
  49450000   277.41915     -4.1037596      29.858828      190.31489      0.0020425333 
  49460000   287.56745     -2.8537664      34.548262      202.2741       0.0030732285 
  49470000   283.03132     -6.3623711      40.333386      201.85987      0.001647858  
  49480000   298.3429      -4.8917473      36.798807      208.87846      0.0036577704 
  49490000   311.03265     -3.9541604      32.952292      213.49685      0.0038970595 
  49500000   304.66794     -1.9331415      55.588444      234.37859     -0.00078651943
  49510000   315.54505     -7.338521       33.71245       213.54932      0.0035315154 
  49520000   319.72703     -6.5400174      37.402047      220.51809      0.0038868109 
  49530000   283.04353     -4.1204092      35.184494      198.96019      0.0010277157 
  49540000   269.63855     -5.5404405      31.419223      185.8233       0.0043298972 
  49550000   303.86317     -13.20627       30.929853      197.9695       0.0030797028 
  49560000   316.75209     -4.7562278      34.011847      217.147        0.0039969077 
  49570000   275.20728     -2.1762563      38.169789      199.24131      0.0011256347 
  49580000   288.5659      -5.4803702      40.490405      206.1819       0.0010349342 
  49590000   309.60545     -1.8891771      34.611383      216.37434      0.0026853366 
  49600000   301.46912     -4.1430693      36.351027      211.03377      0.0030941386 
  49610000   313.99977     -6.3526429      41.410738      221.31686      0.0021155101 
  49620000   306.32252     -5.6838341      37.958237      213.97916      0.0016862587 
  49630000   305.34941     -7.4257929      29.037466      202.7392       0.0032546041 
  49640000   304.82623     -4.6112549      41.19727       217.4032       0.00076021391
  49650000   328.59552     -14.538723      35.360963      215.73892      0.0025469538 
  49660000   334.4061      -9.0229952      29.699808      219.04023      0.00440703   
  49670000   306.7544      -9.0793075      33.789837      206.67147      0.0013526683 
  49680000   311.65751     -8.2191417      35.676686      212.32692      0.0019725868 
  49690000   297.13873     -15.216445      38.223766      199.26443      0.001720621  
  49700000   302.94065     -6.1169057      38.06884       211.65063      0.0027890573 
  49710000   265.35331     -13.819872      38.806282      182.389        0.0021100665 
  49720000   339.99931     -8.7722579      38.132461      231.0414       0.0036086405 
  49730000   301.09318     -9.3110623      32.475092      201.76684      0.0033816875 
  49740000   300.26792     -17.252959      42.473184      203.33351     -0.00016968557
  49750000   301.7601      -12.724285      37.463055      203.73719      0.0030356621 
  49760000   278.05659     -21.305661      39.948404      183.58069     -0.00032537171
  49770000   274.38931     -17.970185      29.60997       174.40236      0.0019699594 
  49780000   307.14438     -14.715161      34.51566       201.99277      0.0036653458 
  49790000   302.9973      -20.4219        33.02482       192.33522      0.0023759207 
  49800000   284.73101     -13.114668      36.76564       192.54806      0.0019221662 
  49810000   319.9941      -16.797988      34.36016       207.37666      0.0043678934 
  49820000   300.88357     -20.858348      30.005364      187.62549      0.001822343  
  49830000   300.43614     -13.212096      38.483053      203.48402      0.0014929703 
  49840000   304.00187     -20.688467      29.116986      188.75672      0.0024500591 
  49850000   266.66407     -11.757398      42.625103      189.04782      0.00034742716
  49860000   275.58127     -11.912447      29.022122      180.5793       0.0033058283 
  49870000   294.82956     -12.170521      41.693817      204.41065      0.0010829931 
  49880000   290.1397      -2.9238565      36.112017      205.29358      0.0021300556 
  49890000   302.40738      1.0958938      35.919703      216.39797      0.0025399729 
  49900000   288.52119      6.6611579      43.10298       220.90948      0.0031626228 
  49910000   287.72889      2.1193179      38.852462      211.64715      0.0011984368 
  49920000   336.21895     -2.6908528      34.789829      231.53774      0.0036734365 
  49930000   344.62806     -7.8648288      36.592925      233.15498      0.0048353541 
  49940000   317.06322     -7.2114289      34.386335      215.25085      0.0021502442 
  49950000   295.78804     -0.029408476    41.082681      216.50918      0.0013226347 
  49960000   324.12515      1.7548548      37.164849      231.18465      0.0033954084 
  49970000   278.37726     -0.30399462     34.955497      199.77966      0.0023368169 
  49980000   289.16664      2.4752937      35.800218      209.80373      0.0021207194 
  49990000   283.32939     -0.51702044     40.453134      208.00178     -2.9140857e-05
  50000000   286.61984      0.03664446     43.321767      213.37591      0.0011667984 
Loop time of 25934.5 on 1 procs for 50000000 steps with 200 atoms

Performance: 333.147 ns/day, 0.072 hours/ns, 1927.936 timesteps/s
65.5% CPU use with 1 MPI tasks x no OpenMP threads

MPI task timing breakdown:
Section |  min time  |  avg time  |  max time  |%varavg| %total
---------------------------------------------------------------
Pair    | 12947      | 12947      | 12947      |   0.0 | 49.92
Bond    | 67.492     | 67.492     | 67.492     |   0.0 |  0.26
Kspace  | 4750.7     | 4750.7     | 4750.7     |   0.0 | 18.32
Neigh   | 6616.9     | 6616.9     | 6616.9     |   0.0 | 25.51
Comm    | 336.82     | 336.82     | 336.82     |   0.0 |  1.30
Output  | 0.71209    | 0.71209    | 0.71209    |   0.0 |  0.00
Modify  | 1136.4     | 1136.4     | 1136.4     |   0.0 |  4.38
Other   |            | 78.37      |            |       |  0.30

Nlocal:            200 ave         200 max         200 min
Histogram: 1 0 0 0 0 0 0 0 0 0
Nghost:           1476 ave        1476 max        1476 min
Histogram: 1 0 0 0 0 0 0 0 0 0
Neighs:          15657 ave       15657 max       15657 min
Histogram: 1 0 0 0 0 0 0 0 0 0

Total # of neighbors = 15657
Ave neighs/atom = 78.285
Ave special neighs/atom = 2.94
Neighbor list builds = 754647
Dangerous builds = 0
write_data PDMAEMA.data
System init for write_data ...
PPPM initialization ...
  using 12-bit tables for long-range coulomb (src/kspace.cpp:342)
  G vector (1/distance) = 0.0045578333
  grid = 6 6 6
  stencil order = 5
  estimated absolute RMS force accuracy = 2.8540482e-06
  estimated relative force accuracy = 8.5948814e-09
  using double precision FFTW3
  3d grid and FFT values/proc = 1331 216
Generated 1 of 1 mixed pair_coeff terms from arithmetic mixing rule
Total wall time: 7:12:14
